\* DG_ESS_Debug *\
Minimize
Total_Cost: 0.5 FC_DG1_0 + 0.5 FC_DG1_1 + 0.5 FC_DG1_10 + 0.5 FC_DG1_11
 + 0.5 FC_DG1_12 + 0.5 FC_DG1_13 + 0.5 FC_DG1_14 + 0.5 FC_DG1_15
 + 0.5 FC_DG1_16 + 0.5 FC_DG1_17 + 0.5 FC_DG1_2 + 0.5 FC_DG1_3 + 0.5 FC_DG1_4
 + 0.5 FC_DG1_5 + 0.5 FC_DG1_6 + 0.5 FC_DG1_7 + 0.5 FC_DG1_8 + 0.5 FC_DG1_9
 + 0.5 FC_DG2_0 + 0.5 FC_DG2_1 + 0.5 FC_DG2_10 + 0.5 FC_DG2_11 + 0.5 FC_DG2_12
 + 0.5 FC_DG2_13 + 0.5 FC_DG2_14 + 0.5 FC_DG2_15 + 0.5 FC_DG2_16
 + 0.5 FC_DG2_17 + 0.5 FC_DG2_2 + 0.5 FC_DG2_3 + 0.5 FC_DG2_4 + 0.5 FC_DG2_5
 + 0.5 FC_DG2_6 + 0.5 FC_DG2_7 + 0.5 FC_DG2_8 + 0.5 FC_DG2_9 + 0.5 FC_DG3_0
 + 0.5 FC_DG3_1 + 0.5 FC_DG3_10 + 0.5 FC_DG3_11 + 0.5 FC_DG3_12
 + 0.5 FC_DG3_13 + 0.5 FC_DG3_14 + 0.5 FC_DG3_15 + 0.5 FC_DG3_16
 + 0.5 FC_DG3_17 + 0.5 FC_DG3_2 + 0.5 FC_DG3_3 + 0.5 FC_DG3_4 + 0.5 FC_DG3_5
 + 0.5 FC_DG3_6 + 0.5 FC_DG3_7 + 0.5 FC_DG3_8 + 0.5 FC_DG3_9 + 170 y_DG1_0
 + 170 y_DG1_1 + 170 y_DG1_10 + 170 y_DG1_11 + 170 y_DG1_12 + 170 y_DG1_13
 + 170 y_DG1_14 + 170 y_DG1_15 + 170 y_DG1_16 + 170 y_DG1_17 + 170 y_DG1_2
 + 170 y_DG1_3 + 170 y_DG1_4 + 170 y_DG1_5 + 170 y_DG1_6 + 170 y_DG1_7
 + 170 y_DG1_8 + 170 y_DG1_9 + 170 y_DG2_0 + 170 y_DG2_1 + 170 y_DG2_10
 + 170 y_DG2_11 + 170 y_DG2_12 + 170 y_DG2_13 + 170 y_DG2_14 + 170 y_DG2_15
 + 170 y_DG2_16 + 170 y_DG2_17 + 170 y_DG2_2 + 170 y_DG2_3 + 170 y_DG2_4
 + 170 y_DG2_5 + 170 y_DG2_6 + 170 y_DG2_7 + 170 y_DG2_8 + 170 y_DG2_9
 + 120 y_DG3_0 + 120 y_DG3_1 + 120 y_DG3_10 + 120 y_DG3_11 + 120 y_DG3_12
 + 120 y_DG3_13 + 120 y_DG3_14 + 120 y_DG3_15 + 120 y_DG3_16 + 120 y_DG3_17
 + 120 y_DG3_2 + 120 y_DG3_3 + 120 y_DG3_4 + 120 y_DG3_5 + 120 y_DG3_6
 + 120 y_DG3_7 + 120 y_DG3_8 + 120 y_DG3_9
Subject To
DG_Pmax_DG1_0: P_DG1_0 - 14.4 u_DG1_0 <= 0
DG_Pmax_DG1_1: P_DG1_1 - 14.4 u_DG1_1 <= 0
DG_Pmax_DG1_10: P_DG1_10 - 14.4 u_DG1_10 <= 0
DG_Pmax_DG1_11: P_DG1_11 - 14.4 u_DG1_11 <= 0
DG_Pmax_DG1_12: P_DG1_12 - 14.4 u_DG1_12 <= 0
DG_Pmax_DG1_13: P_DG1_13 - 14.4 u_DG1_13 <= 0
DG_Pmax_DG1_14: P_DG1_14 - 14.4 u_DG1_14 <= 0
DG_Pmax_DG1_15: P_DG1_15 - 14.4 u_DG1_15 <= 0
DG_Pmax_DG1_16: P_DG1_16 - 14.4 u_DG1_16 <= 0
DG_Pmax_DG1_17: P_DG1_17 - 14.4 u_DG1_17 <= 0
DG_Pmax_DG1_2: P_DG1_2 - 14.4 u_DG1_2 <= 0
DG_Pmax_DG1_3: P_DG1_3 - 14.4 u_DG1_3 <= 0
DG_Pmax_DG1_4: P_DG1_4 - 14.4 u_DG1_4 <= 0
DG_Pmax_DG1_5: P_DG1_5 - 14.4 u_DG1_5 <= 0
DG_Pmax_DG1_6: P_DG1_6 - 14.4 u_DG1_6 <= 0
DG_Pmax_DG1_7: P_DG1_7 - 14.4 u_DG1_7 <= 0
DG_Pmax_DG1_8: P_DG1_8 - 14.4 u_DG1_8 <= 0
DG_Pmax_DG1_9: P_DG1_9 - 14.4 u_DG1_9 <= 0
DG_Pmax_DG2_0: P_DG2_0 - 14.4 u_DG2_0 <= 0
DG_Pmax_DG2_1: P_DG2_1 - 14.4 u_DG2_1 <= 0
DG_Pmax_DG2_10: P_DG2_10 - 14.4 u_DG2_10 <= 0
DG_Pmax_DG2_11: P_DG2_11 - 14.4 u_DG2_11 <= 0
DG_Pmax_DG2_12: P_DG2_12 - 14.4 u_DG2_12 <= 0
DG_Pmax_DG2_13: P_DG2_13 - 14.4 u_DG2_13 <= 0
DG_Pmax_DG2_14: P_DG2_14 - 14.4 u_DG2_14 <= 0
DG_Pmax_DG2_15: P_DG2_15 - 14.4 u_DG2_15 <= 0
DG_Pmax_DG2_16: P_DG2_16 - 14.4 u_DG2_16 <= 0
DG_Pmax_DG2_17: P_DG2_17 - 14.4 u_DG2_17 <= 0
DG_Pmax_DG2_2: P_DG2_2 - 14.4 u_DG2_2 <= 0
DG_Pmax_DG2_3: P_DG2_3 - 14.4 u_DG2_3 <= 0
DG_Pmax_DG2_4: P_DG2_4 - 14.4 u_DG2_4 <= 0
DG_Pmax_DG2_5: P_DG2_5 - 14.4 u_DG2_5 <= 0
DG_Pmax_DG2_6: P_DG2_6 - 14.4 u_DG2_6 <= 0
DG_Pmax_DG2_7: P_DG2_7 - 14.4 u_DG2_7 <= 0
DG_Pmax_DG2_8: P_DG2_8 - 14.4 u_DG2_8 <= 0
DG_Pmax_DG2_9: P_DG2_9 - 14.4 u_DG2_9 <= 0
DG_Pmax_DG3_0: P_DG3_0 - 10.8 u_DG3_0 <= 0
DG_Pmax_DG3_1: P_DG3_1 - 10.8 u_DG3_1 <= 0
DG_Pmax_DG3_10: P_DG3_10 - 10.8 u_DG3_10 <= 0
DG_Pmax_DG3_11: P_DG3_11 - 10.8 u_DG3_11 <= 0
DG_Pmax_DG3_12: P_DG3_12 - 10.8 u_DG3_12 <= 0
DG_Pmax_DG3_13: P_DG3_13 - 10.8 u_DG3_13 <= 0
DG_Pmax_DG3_14: P_DG3_14 - 10.8 u_DG3_14 <= 0
DG_Pmax_DG3_15: P_DG3_15 - 10.8 u_DG3_15 <= 0
DG_Pmax_DG3_16: P_DG3_16 - 10.8 u_DG3_16 <= 0
DG_Pmax_DG3_17: P_DG3_17 - 10.8 u_DG3_17 <= 0
DG_Pmax_DG3_2: P_DG3_2 - 10.8 u_DG3_2 <= 0
DG_Pmax_DG3_3: P_DG3_3 - 10.8 u_DG3_3 <= 0
DG_Pmax_DG3_4: P_DG3_4 - 10.8 u_DG3_4 <= 0
DG_Pmax_DG3_5: P_DG3_5 - 10.8 u_DG3_5 <= 0
DG_Pmax_DG3_6: P_DG3_6 - 10.8 u_DG3_6 <= 0
DG_Pmax_DG3_7: P_DG3_7 - 10.8 u_DG3_7 <= 0
DG_Pmax_DG3_8: P_DG3_8 - 10.8 u_DG3_8 <= 0
DG_Pmax_DG3_9: P_DG3_9 - 10.8 u_DG3_9 <= 0
DG_Pmin_DG1_0: P_DG1_0 - 3.6 u_DG1_0 >= 0
DG_Pmin_DG1_1: P_DG1_1 - 3.6 u_DG1_1 >= 0
DG_Pmin_DG1_10: P_DG1_10 - 3.6 u_DG1_10 >= 0
DG_Pmin_DG1_11: P_DG1_11 - 3.6 u_DG1_11 >= 0
DG_Pmin_DG1_12: P_DG1_12 - 3.6 u_DG1_12 >= 0
DG_Pmin_DG1_13: P_DG1_13 - 3.6 u_DG1_13 >= 0
DG_Pmin_DG1_14: P_DG1_14 - 3.6 u_DG1_14 >= 0
DG_Pmin_DG1_15: P_DG1_15 - 3.6 u_DG1_15 >= 0
DG_Pmin_DG1_16: P_DG1_16 - 3.6 u_DG1_16 >= 0
DG_Pmin_DG1_17: P_DG1_17 - 3.6 u_DG1_17 >= 0
DG_Pmin_DG1_2: P_DG1_2 - 3.6 u_DG1_2 >= 0
DG_Pmin_DG1_3: P_DG1_3 - 3.6 u_DG1_3 >= 0
DG_Pmin_DG1_4: P_DG1_4 - 3.6 u_DG1_4 >= 0
DG_Pmin_DG1_5: P_DG1_5 - 3.6 u_DG1_5 >= 0
DG_Pmin_DG1_6: P_DG1_6 - 3.6 u_DG1_6 >= 0
DG_Pmin_DG1_7: P_DG1_7 - 3.6 u_DG1_7 >= 0
DG_Pmin_DG1_8: P_DG1_8 - 3.6 u_DG1_8 >= 0
DG_Pmin_DG1_9: P_DG1_9 - 3.6 u_DG1_9 >= 0
DG_Pmin_DG2_0: P_DG2_0 - 3.6 u_DG2_0 >= 0
DG_Pmin_DG2_1: P_DG2_1 - 3.6 u_DG2_1 >= 0
DG_Pmin_DG2_10: P_DG2_10 - 3.6 u_DG2_10 >= 0
DG_Pmin_DG2_11: P_DG2_11 - 3.6 u_DG2_11 >= 0
DG_Pmin_DG2_12: P_DG2_12 - 3.6 u_DG2_12 >= 0
DG_Pmin_DG2_13: P_DG2_13 - 3.6 u_DG2_13 >= 0
DG_Pmin_DG2_14: P_DG2_14 - 3.6 u_DG2_14 >= 0
DG_Pmin_DG2_15: P_DG2_15 - 3.6 u_DG2_15 >= 0
DG_Pmin_DG2_16: P_DG2_16 - 3.6 u_DG2_16 >= 0
DG_Pmin_DG2_17: P_DG2_17 - 3.6 u_DG2_17 >= 0
DG_Pmin_DG2_2: P_DG2_2 - 3.6 u_DG2_2 >= 0
DG_Pmin_DG2_3: P_DG2_3 - 3.6 u_DG2_3 >= 0
DG_Pmin_DG2_4: P_DG2_4 - 3.6 u_DG2_4 >= 0
DG_Pmin_DG2_5: P_DG2_5 - 3.6 u_DG2_5 >= 0
DG_Pmin_DG2_6: P_DG2_6 - 3.6 u_DG2_6 >= 0
DG_Pmin_DG2_7: P_DG2_7 - 3.6 u_DG2_7 >= 0
DG_Pmin_DG2_8: P_DG2_8 - 3.6 u_DG2_8 >= 0
DG_Pmin_DG2_9: P_DG2_9 - 3.6 u_DG2_9 >= 0
DG_Pmin_DG3_0: P_DG3_0 - 2.7 u_DG3_0 >= 0
DG_Pmin_DG3_1: P_DG3_1 - 2.7 u_DG3_1 >= 0
DG_Pmin_DG3_10: P_DG3_10 - 2.7 u_DG3_10 >= 0
DG_Pmin_DG3_11: P_DG3_11 - 2.7 u_DG3_11 >= 0
DG_Pmin_DG3_12: P_DG3_12 - 2.7 u_DG3_12 >= 0
DG_Pmin_DG3_13: P_DG3_13 - 2.7 u_DG3_13 >= 0
DG_Pmin_DG3_14: P_DG3_14 - 2.7 u_DG3_14 >= 0
DG_Pmin_DG3_15: P_DG3_15 - 2.7 u_DG3_15 >= 0
DG_Pmin_DG3_16: P_DG3_16 - 2.7 u_DG3_16 >= 0
DG_Pmin_DG3_17: P_DG3_17 - 2.7 u_DG3_17 >= 0
DG_Pmin_DG3_2: P_DG3_2 - 2.7 u_DG3_2 >= 0
DG_Pmin_DG3_3: P_DG3_3 - 2.7 u_DG3_3 >= 0
DG_Pmin_DG3_4: P_DG3_4 - 2.7 u_DG3_4 >= 0
DG_Pmin_DG3_5: P_DG3_5 - 2.7 u_DG3_5 >= 0
DG_Pmin_DG3_6: P_DG3_6 - 2.7 u_DG3_6 >= 0
DG_Pmin_DG3_7: P_DG3_7 - 2.7 u_DG3_7 >= 0
DG_Pmin_DG3_8: P_DG3_8 - 2.7 u_DG3_8 >= 0
DG_Pmin_DG3_9: P_DG3_9 - 2.7 u_DG3_9 >= 0
ESS_Charge_Mode_0: P_c_0 - 15 u_ess_0 <= 0
ESS_Charge_Mode_1: P_c_1 - 15 u_ess_1 <= 0
ESS_Charge_Mode_10: P_c_10 - 15 u_ess_10 <= 0
ESS_Charge_Mode_11: P_c_11 - 15 u_ess_11 <= 0
ESS_Charge_Mode_12: P_c_12 - 15 u_ess_12 <= 0
ESS_Charge_Mode_13: P_c_13 - 15 u_ess_13 <= 0
ESS_Charge_Mode_14: P_c_14 - 15 u_ess_14 <= 0
ESS_Charge_Mode_15: P_c_15 - 15 u_ess_15 <= 0
ESS_Charge_Mode_16: P_c_16 - 15 u_ess_16 <= 0
ESS_Charge_Mode_17: P_c_17 - 15 u_ess_17 <= 0
ESS_Charge_Mode_2: P_c_2 - 15 u_ess_2 <= 0
ESS_Charge_Mode_3: P_c_3 - 15 u_ess_3 <= 0
ESS_Charge_Mode_4: P_c_4 - 15 u_ess_4 <= 0
ESS_Charge_Mode_5: P_c_5 - 15 u_ess_5 <= 0
ESS_Charge_Mode_6: P_c_6 - 15 u_ess_6 <= 0
ESS_Charge_Mode_7: P_c_7 - 15 u_ess_7 <= 0
ESS_Charge_Mode_8: P_c_8 - 15 u_ess_8 <= 0
ESS_Charge_Mode_9: P_c_9 - 15 u_ess_9 <= 0
ESS_Discharge_Mode_0: P_dc_0 + 15 u_ess_0 <= 15
ESS_Discharge_Mode_1: P_dc_1 + 15 u_ess_1 <= 15
ESS_Discharge_Mode_10: P_dc_10 + 15 u_ess_10 <= 15
ESS_Discharge_Mode_11: P_dc_11 + 15 u_ess_11 <= 15
ESS_Discharge_Mode_12: P_dc_12 + 15 u_ess_12 <= 15
ESS_Discharge_Mode_13: P_dc_13 + 15 u_ess_13 <= 15
ESS_Discharge_Mode_14: P_dc_14 + 15 u_ess_14 <= 15
ESS_Discharge_Mode_15: P_dc_15 + 15 u_ess_15 <= 15
ESS_Discharge_Mode_16: P_dc_16 + 15 u_ess_16 <= 15
ESS_Discharge_Mode_17: P_dc_17 + 15 u_ess_17 <= 15
ESS_Discharge_Mode_2: P_dc_2 + 15 u_ess_2 <= 15
ESS_Discharge_Mode_3: P_dc_3 + 15 u_ess_3 <= 15
ESS_Discharge_Mode_4: P_dc_4 + 15 u_ess_4 <= 15
ESS_Discharge_Mode_5: P_dc_5 + 15 u_ess_5 <= 15
ESS_Discharge_Mode_6: P_dc_6 + 15 u_ess_6 <= 15
ESS_Discharge_Mode_7: P_dc_7 + 15 u_ess_7 <= 15
ESS_Discharge_Mode_8: P_dc_8 + 15 u_ess_8 <= 15
ESS_Discharge_Mode_9: P_dc_9 + 15 u_ess_9 <= 15
MinDown_DG1_0: - u_DG1_0 - z_DG1_0 >= -1
MinDown_DG1_1: - u_DG1_1 - z_DG1_1 >= -1
MinDown_DG1_10: - u_DG1_10 - z_DG1_10 >= -1
MinDown_DG1_11: - u_DG1_11 - z_DG1_11 >= -1
MinDown_DG1_12: - u_DG1_12 - z_DG1_12 >= -1
MinDown_DG1_13: - u_DG1_13 - z_DG1_13 >= -1
MinDown_DG1_14: - u_DG1_14 - z_DG1_14 >= -1
MinDown_DG1_15: - u_DG1_15 - z_DG1_15 >= -1
MinDown_DG1_16: - u_DG1_16 - z_DG1_16 >= -1
MinDown_DG1_17: - u_DG1_17 - z_DG1_17 >= -1
MinDown_DG1_2: - u_DG1_2 - z_DG1_2 >= -1
MinDown_DG1_3: - u_DG1_3 - z_DG1_3 >= -1
MinDown_DG1_4: - u_DG1_4 - z_DG1_4 >= -1
MinDown_DG1_5: - u_DG1_5 - z_DG1_5 >= -1
MinDown_DG1_6: - u_DG1_6 - z_DG1_6 >= -1
MinDown_DG1_7: - u_DG1_7 - z_DG1_7 >= -1
MinDown_DG1_8: - u_DG1_8 - z_DG1_8 >= -1
MinDown_DG1_9: - u_DG1_9 - z_DG1_9 >= -1
MinDown_DG2_0: - u_DG2_0 - u_DG2_1 - 2 z_DG2_0 >= -2
MinDown_DG2_1: - u_DG2_1 - u_DG2_2 - 2 z_DG2_1 >= -2
MinDown_DG2_10: - u_DG2_10 - u_DG2_11 - 2 z_DG2_10 >= -2
MinDown_DG2_11: - u_DG2_11 - u_DG2_12 - 2 z_DG2_11 >= -2
MinDown_DG2_12: - u_DG2_12 - u_DG2_13 - 2 z_DG2_12 >= -2
MinDown_DG2_13: - u_DG2_13 - u_DG2_14 - 2 z_DG2_13 >= -2
MinDown_DG2_14: - u_DG2_14 - u_DG2_15 - 2 z_DG2_14 >= -2
MinDown_DG2_15: - u_DG2_15 - u_DG2_16 - 2 z_DG2_15 >= -2
MinDown_DG2_16: - u_DG2_16 - u_DG2_17 - 2 z_DG2_16 >= -2
MinDown_DG2_17: - u_DG2_17 - z_DG2_17 >= -1
MinDown_DG2_2: - u_DG2_2 - u_DG2_3 - 2 z_DG2_2 >= -2
MinDown_DG2_3: - u_DG2_3 - u_DG2_4 - 2 z_DG2_3 >= -2
MinDown_DG2_4: - u_DG2_4 - u_DG2_5 - 2 z_DG2_4 >= -2
MinDown_DG2_5: - u_DG2_5 - u_DG2_6 - 2 z_DG2_5 >= -2
MinDown_DG2_6: - u_DG2_6 - u_DG2_7 - 2 z_DG2_6 >= -2
MinDown_DG2_7: - u_DG2_7 - u_DG2_8 - 2 z_DG2_7 >= -2
MinDown_DG2_8: - u_DG2_8 - u_DG2_9 - 2 z_DG2_8 >= -2
MinDown_DG2_9: - u_DG2_10 - u_DG2_9 - 2 z_DG2_9 >= -2
MinDown_DG3_0: - u_DG3_0 - z_DG3_0 >= -1
MinDown_DG3_1: - u_DG3_1 - z_DG3_1 >= -1
MinDown_DG3_10: - u_DG3_10 - z_DG3_10 >= -1
MinDown_DG3_11: - u_DG3_11 - z_DG3_11 >= -1
MinDown_DG3_12: - u_DG3_12 - z_DG3_12 >= -1
MinDown_DG3_13: - u_DG3_13 - z_DG3_13 >= -1
MinDown_DG3_14: - u_DG3_14 - z_DG3_14 >= -1
MinDown_DG3_15: - u_DG3_15 - z_DG3_15 >= -1
MinDown_DG3_16: - u_DG3_16 - z_DG3_16 >= -1
MinDown_DG3_17: - u_DG3_17 - z_DG3_17 >= -1
MinDown_DG3_2: - u_DG3_2 - z_DG3_2 >= -1
MinDown_DG3_3: - u_DG3_3 - z_DG3_3 >= -1
MinDown_DG3_4: - u_DG3_4 - z_DG3_4 >= -1
MinDown_DG3_5: - u_DG3_5 - z_DG3_5 >= -1
MinDown_DG3_6: - u_DG3_6 - z_DG3_6 >= -1
MinDown_DG3_7: - u_DG3_7 - z_DG3_7 >= -1
MinDown_DG3_8: - u_DG3_8 - z_DG3_8 >= -1
MinDown_DG3_9: - u_DG3_9 - z_DG3_9 >= -1
MinUp_DG1_0: u_DG1_0 - y_DG1_0 >= 0
MinUp_DG1_1: u_DG1_1 - y_DG1_1 >= 0
MinUp_DG1_10: u_DG1_10 - y_DG1_10 >= 0
MinUp_DG1_11: u_DG1_11 - y_DG1_11 >= 0
MinUp_DG1_12: u_DG1_12 - y_DG1_12 >= 0
MinUp_DG1_13: u_DG1_13 - y_DG1_13 >= 0
MinUp_DG1_14: u_DG1_14 - y_DG1_14 >= 0
MinUp_DG1_15: u_DG1_15 - y_DG1_15 >= 0
MinUp_DG1_16: u_DG1_16 - y_DG1_16 >= 0
MinUp_DG1_17: u_DG1_17 - y_DG1_17 >= 0
MinUp_DG1_2: u_DG1_2 - y_DG1_2 >= 0
MinUp_DG1_3: u_DG1_3 - y_DG1_3 >= 0
MinUp_DG1_4: u_DG1_4 - y_DG1_4 >= 0
MinUp_DG1_5: u_DG1_5 - y_DG1_5 >= 0
MinUp_DG1_6: u_DG1_6 - y_DG1_6 >= 0
MinUp_DG1_7: u_DG1_7 - y_DG1_7 >= 0
MinUp_DG1_8: u_DG1_8 - y_DG1_8 >= 0
MinUp_DG1_9: u_DG1_9 - y_DG1_9 >= 0
MinUp_DG2_0: u_DG2_0 + u_DG2_1 - 2 y_DG2_0 >= 0
MinUp_DG2_1: u_DG2_1 + u_DG2_2 - 2 y_DG2_1 >= 0
MinUp_DG2_10: u_DG2_10 + u_DG2_11 - 2 y_DG2_10 >= 0
MinUp_DG2_11: u_DG2_11 + u_DG2_12 - 2 y_DG2_11 >= 0
MinUp_DG2_12: u_DG2_12 + u_DG2_13 - 2 y_DG2_12 >= 0
MinUp_DG2_13: u_DG2_13 + u_DG2_14 - 2 y_DG2_13 >= 0
MinUp_DG2_14: u_DG2_14 + u_DG2_15 - 2 y_DG2_14 >= 0
MinUp_DG2_15: u_DG2_15 + u_DG2_16 - 2 y_DG2_15 >= 0
MinUp_DG2_16: u_DG2_16 + u_DG2_17 - 2 y_DG2_16 >= 0
MinUp_DG2_17: u_DG2_17 - y_DG2_17 >= 0
MinUp_DG2_2: u_DG2_2 + u_DG2_3 - 2 y_DG2_2 >= 0
MinUp_DG2_3: u_DG2_3 + u_DG2_4 - 2 y_DG2_3 >= 0
MinUp_DG2_4: u_DG2_4 + u_DG2_5 - 2 y_DG2_4 >= 0
MinUp_DG2_5: u_DG2_5 + u_DG2_6 - 2 y_DG2_5 >= 0
MinUp_DG2_6: u_DG2_6 + u_DG2_7 - 2 y_DG2_6 >= 0
MinUp_DG2_7: u_DG2_7 + u_DG2_8 - 2 y_DG2_7 >= 0
MinUp_DG2_8: u_DG2_8 + u_DG2_9 - 2 y_DG2_8 >= 0
MinUp_DG2_9: u_DG2_10 + u_DG2_9 - 2 y_DG2_9 >= 0
MinUp_DG3_0: u_DG3_0 - y_DG3_0 >= 0
MinUp_DG3_1: u_DG3_1 - y_DG3_1 >= 0
MinUp_DG3_10: u_DG3_10 - y_DG3_10 >= 0
MinUp_DG3_11: u_DG3_11 - y_DG3_11 >= 0
MinUp_DG3_12: u_DG3_12 - y_DG3_12 >= 0
MinUp_DG3_13: u_DG3_13 - y_DG3_13 >= 0
MinUp_DG3_14: u_DG3_14 - y_DG3_14 >= 0
MinUp_DG3_15: u_DG3_15 - y_DG3_15 >= 0
MinUp_DG3_16: u_DG3_16 - y_DG3_16 >= 0
MinUp_DG3_17: u_DG3_17 - y_DG3_17 >= 0
MinUp_DG3_2: u_DG3_2 - y_DG3_2 >= 0
MinUp_DG3_3: u_DG3_3 - y_DG3_3 >= 0
MinUp_DG3_4: u_DG3_4 - y_DG3_4 >= 0
MinUp_DG3_5: u_DG3_5 - y_DG3_5 >= 0
MinUp_DG3_6: u_DG3_6 - y_DG3_6 >= 0
MinUp_DG3_7: u_DG3_7 - y_DG3_7 >= 0
MinUp_DG3_8: u_DG3_8 - y_DG3_8 >= 0
MinUp_DG3_9: u_DG3_9 - y_DG3_9 >= 0
NoSimultaneous_DG1_0: y_DG1_0 + z_DG1_0 <= 1
NoSimultaneous_DG1_1: y_DG1_1 + z_DG1_1 <= 1
NoSimultaneous_DG1_10: y_DG1_10 + z_DG1_10 <= 1
NoSimultaneous_DG1_11: y_DG1_11 + z_DG1_11 <= 1
NoSimultaneous_DG1_12: y_DG1_12 + z_DG1_12 <= 1
NoSimultaneous_DG1_13: y_DG1_13 + z_DG1_13 <= 1
NoSimultaneous_DG1_14: y_DG1_14 + z_DG1_14 <= 1
NoSimultaneous_DG1_15: y_DG1_15 + z_DG1_15 <= 1
NoSimultaneous_DG1_16: y_DG1_16 + z_DG1_16 <= 1
NoSimultaneous_DG1_17: y_DG1_17 + z_DG1_17 <= 1
NoSimultaneous_DG1_2: y_DG1_2 + z_DG1_2 <= 1
NoSimultaneous_DG1_3: y_DG1_3 + z_DG1_3 <= 1
NoSimultaneous_DG1_4: y_DG1_4 + z_DG1_4 <= 1
NoSimultaneous_DG1_5: y_DG1_5 + z_DG1_5 <= 1
NoSimultaneous_DG1_6: y_DG1_6 + z_DG1_6 <= 1
NoSimultaneous_DG1_7: y_DG1_7 + z_DG1_7 <= 1
NoSimultaneous_DG1_8: y_DG1_8 + z_DG1_8 <= 1
NoSimultaneous_DG1_9: y_DG1_9 + z_DG1_9 <= 1
NoSimultaneous_DG2_0: y_DG2_0 + z_DG2_0 <= 1
NoSimultaneous_DG2_1: y_DG2_1 + z_DG2_1 <= 1
NoSimultaneous_DG2_10: y_DG2_10 + z_DG2_10 <= 1
NoSimultaneous_DG2_11: y_DG2_11 + z_DG2_11 <= 1
NoSimultaneous_DG2_12: y_DG2_12 + z_DG2_12 <= 1
NoSimultaneous_DG2_13: y_DG2_13 + z_DG2_13 <= 1
NoSimultaneous_DG2_14: y_DG2_14 + z_DG2_14 <= 1
NoSimultaneous_DG2_15: y_DG2_15 + z_DG2_15 <= 1
NoSimultaneous_DG2_16: y_DG2_16 + z_DG2_16 <= 1
NoSimultaneous_DG2_17: y_DG2_17 + z_DG2_17 <= 1
NoSimultaneous_DG2_2: y_DG2_2 + z_DG2_2 <= 1
NoSimultaneous_DG2_3: y_DG2_3 + z_DG2_3 <= 1
NoSimultaneous_DG2_4: y_DG2_4 + z_DG2_4 <= 1
NoSimultaneous_DG2_5: y_DG2_5 + z_DG2_5 <= 1
NoSimultaneous_DG2_6: y_DG2_6 + z_DG2_6 <= 1
NoSimultaneous_DG2_7: y_DG2_7 + z_DG2_7 <= 1
NoSimultaneous_DG2_8: y_DG2_8 + z_DG2_8 <= 1
NoSimultaneous_DG2_9: y_DG2_9 + z_DG2_9 <= 1
NoSimultaneous_DG3_0: y_DG3_0 + z_DG3_0 <= 1
NoSimultaneous_DG3_1: y_DG3_1 + z_DG3_1 <= 1
NoSimultaneous_DG3_10: y_DG3_10 + z_DG3_10 <= 1
NoSimultaneous_DG3_11: y_DG3_11 + z_DG3_11 <= 1
NoSimultaneous_DG3_12: y_DG3_12 + z_DG3_12 <= 1
NoSimultaneous_DG3_13: y_DG3_13 + z_DG3_13 <= 1
NoSimultaneous_DG3_14: y_DG3_14 + z_DG3_14 <= 1
NoSimultaneous_DG3_15: y_DG3_15 + z_DG3_15 <= 1
NoSimultaneous_DG3_16: y_DG3_16 + z_DG3_16 <= 1
NoSimultaneous_DG3_17: y_DG3_17 + z_DG3_17 <= 1
NoSimultaneous_DG3_2: y_DG3_2 + z_DG3_2 <= 1
NoSimultaneous_DG3_3: y_DG3_3 + z_DG3_3 <= 1
NoSimultaneous_DG3_4: y_DG3_4 + z_DG3_4 <= 1
NoSimultaneous_DG3_5: y_DG3_5 + z_DG3_5 <= 1
NoSimultaneous_DG3_6: y_DG3_6 + z_DG3_6 <= 1
NoSimultaneous_DG3_7: y_DG3_7 + z_DG3_7 <= 1
NoSimultaneous_DG3_8: y_DG3_8 + z_DG3_8 <= 1
NoSimultaneous_DG3_9: y_DG3_9 + z_DG3_9 <= 1
PWL_cost_DG1_0: FC_DG1_0 - 792.157405997 lam_DG1_0_0
 - 1267.36106085 lam_DG1_0_1 - 1742.49664632 lam_DG1_0_2
 - 2217.56418054 lam_DG1_0_3 - 2692.56368165 lam_DG1_0_4
 - 3167.4951678 lam_DG1_0_5 = 0
PWL_cost_DG1_1: FC_DG1_1 - 792.157405997 lam_DG1_1_0
 - 1267.36106085 lam_DG1_1_1 - 1742.49664632 lam_DG1_1_2
 - 2217.56418054 lam_DG1_1_3 - 2692.56368165 lam_DG1_1_4
 - 3167.4951678 lam_DG1_1_5 = 0
PWL_cost_DG1_10: FC_DG1_10 - 792.157405997 lam_DG1_10_0
 - 1267.36106085 lam_DG1_10_1 - 1742.49664632 lam_DG1_10_2
 - 2217.56418054 lam_DG1_10_3 - 2692.56368165 lam_DG1_10_4
 - 3167.4951678 lam_DG1_10_5 = 0
PWL_cost_DG1_11: FC_DG1_11 - 792.157405997 lam_DG1_11_0
 - 1267.36106085 lam_DG1_11_1 - 1742.49664632 lam_DG1_11_2
 - 2217.56418054 lam_DG1_11_3 - 2692.56368165 lam_DG1_11_4
 - 3167.4951678 lam_DG1_11_5 = 0
PWL_cost_DG1_12: FC_DG1_12 - 792.157405997 lam_DG1_12_0
 - 1267.36106085 lam_DG1_12_1 - 1742.49664632 lam_DG1_12_2
 - 2217.56418054 lam_DG1_12_3 - 2692.56368165 lam_DG1_12_4
 - 3167.4951678 lam_DG1_12_5 = 0
PWL_cost_DG1_13: FC_DG1_13 - 792.157405997 lam_DG1_13_0
 - 1267.36106085 lam_DG1_13_1 - 1742.49664632 lam_DG1_13_2
 - 2217.56418054 lam_DG1_13_3 - 2692.56368165 lam_DG1_13_4
 - 3167.4951678 lam_DG1_13_5 = 0
PWL_cost_DG1_14: FC_DG1_14 - 792.157405997 lam_DG1_14_0
 - 1267.36106085 lam_DG1_14_1 - 1742.49664632 lam_DG1_14_2
 - 2217.56418054 lam_DG1_14_3 - 2692.56368165 lam_DG1_14_4
 - 3167.4951678 lam_DG1_14_5 = 0
PWL_cost_DG1_15: FC_DG1_15 - 792.157405997 lam_DG1_15_0
 - 1267.36106085 lam_DG1_15_1 - 1742.49664632 lam_DG1_15_2
 - 2217.56418054 lam_DG1_15_3 - 2692.56368165 lam_DG1_15_4
 - 3167.4951678 lam_DG1_15_5 = 0
PWL_cost_DG1_16: FC_DG1_16 - 792.157405997 lam_DG1_16_0
 - 1267.36106085 lam_DG1_16_1 - 1742.49664632 lam_DG1_16_2
 - 2217.56418054 lam_DG1_16_3 - 2692.56368165 lam_DG1_16_4
 - 3167.4951678 lam_DG1_16_5 = 0
PWL_cost_DG1_17: FC_DG1_17 - 792.157405997 lam_DG1_17_0
 - 1267.36106085 lam_DG1_17_1 - 1742.49664632 lam_DG1_17_2
 - 2217.56418054 lam_DG1_17_3 - 2692.56368165 lam_DG1_17_4
 - 3167.4951678 lam_DG1_17_5 = 0
PWL_cost_DG1_2: FC_DG1_2 - 792.157405997 lam_DG1_2_0
 - 1267.36106085 lam_DG1_2_1 - 1742.49664632 lam_DG1_2_2
 - 2217.56418054 lam_DG1_2_3 - 2692.56368165 lam_DG1_2_4
 - 3167.4951678 lam_DG1_2_5 = 0
PWL_cost_DG1_3: FC_DG1_3 - 792.157405997 lam_DG1_3_0
 - 1267.36106085 lam_DG1_3_1 - 1742.49664632 lam_DG1_3_2
 - 2217.56418054 lam_DG1_3_3 - 2692.56368165 lam_DG1_3_4
 - 3167.4951678 lam_DG1_3_5 = 0
PWL_cost_DG1_4: FC_DG1_4 - 792.157405997 lam_DG1_4_0
 - 1267.36106085 lam_DG1_4_1 - 1742.49664632 lam_DG1_4_2
 - 2217.56418054 lam_DG1_4_3 - 2692.56368165 lam_DG1_4_4
 - 3167.4951678 lam_DG1_4_5 = 0
PWL_cost_DG1_5: FC_DG1_5 - 792.157405997 lam_DG1_5_0
 - 1267.36106085 lam_DG1_5_1 - 1742.49664632 lam_DG1_5_2
 - 2217.56418054 lam_DG1_5_3 - 2692.56368165 lam_DG1_5_4
 - 3167.4951678 lam_DG1_5_5 = 0
PWL_cost_DG1_6: FC_DG1_6 - 792.157405997 lam_DG1_6_0
 - 1267.36106085 lam_DG1_6_1 - 1742.49664632 lam_DG1_6_2
 - 2217.56418054 lam_DG1_6_3 - 2692.56368165 lam_DG1_6_4
 - 3167.4951678 lam_DG1_6_5 = 0
PWL_cost_DG1_7: FC_DG1_7 - 792.157405997 lam_DG1_7_0
 - 1267.36106085 lam_DG1_7_1 - 1742.49664632 lam_DG1_7_2
 - 2217.56418054 lam_DG1_7_3 - 2692.56368165 lam_DG1_7_4
 - 3167.4951678 lam_DG1_7_5 = 0
PWL_cost_DG1_8: FC_DG1_8 - 792.157405997 lam_DG1_8_0
 - 1267.36106085 lam_DG1_8_1 - 1742.49664632 lam_DG1_8_2
 - 2217.56418054 lam_DG1_8_3 - 2692.56368165 lam_DG1_8_4
 - 3167.4951678 lam_DG1_8_5 = 0
PWL_cost_DG1_9: FC_DG1_9 - 792.157405997 lam_DG1_9_0
 - 1267.36106085 lam_DG1_9_1 - 1742.49664632 lam_DG1_9_2
 - 2217.56418054 lam_DG1_9_3 - 2692.56368165 lam_DG1_9_4
 - 3167.4951678 lam_DG1_9_5 = 0
PWL_cost_DG2_0: FC_DG2_0 - 792.157405997 lam_DG2_0_0
 - 1267.36106085 lam_DG2_0_1 - 1742.49664632 lam_DG2_0_2
 - 2217.56418054 lam_DG2_0_3 - 2692.56368165 lam_DG2_0_4
 - 3167.4951678 lam_DG2_0_5 = 0
PWL_cost_DG2_1: FC_DG2_1 - 792.157405997 lam_DG2_1_0
 - 1267.36106085 lam_DG2_1_1 - 1742.49664632 lam_DG2_1_2
 - 2217.56418054 lam_DG2_1_3 - 2692.56368165 lam_DG2_1_4
 - 3167.4951678 lam_DG2_1_5 = 0
PWL_cost_DG2_10: FC_DG2_10 - 792.157405997 lam_DG2_10_0
 - 1267.36106085 lam_DG2_10_1 - 1742.49664632 lam_DG2_10_2
 - 2217.56418054 lam_DG2_10_3 - 2692.56368165 lam_DG2_10_4
 - 3167.4951678 lam_DG2_10_5 = 0
PWL_cost_DG2_11: FC_DG2_11 - 792.157405997 lam_DG2_11_0
 - 1267.36106085 lam_DG2_11_1 - 1742.49664632 lam_DG2_11_2
 - 2217.56418054 lam_DG2_11_3 - 2692.56368165 lam_DG2_11_4
 - 3167.4951678 lam_DG2_11_5 = 0
PWL_cost_DG2_12: FC_DG2_12 - 792.157405997 lam_DG2_12_0
 - 1267.36106085 lam_DG2_12_1 - 1742.49664632 lam_DG2_12_2
 - 2217.56418054 lam_DG2_12_3 - 2692.56368165 lam_DG2_12_4
 - 3167.4951678 lam_DG2_12_5 = 0
PWL_cost_DG2_13: FC_DG2_13 - 792.157405997 lam_DG2_13_0
 - 1267.36106085 lam_DG2_13_1 - 1742.49664632 lam_DG2_13_2
 - 2217.56418054 lam_DG2_13_3 - 2692.56368165 lam_DG2_13_4
 - 3167.4951678 lam_DG2_13_5 = 0
PWL_cost_DG2_14: FC_DG2_14 - 792.157405997 lam_DG2_14_0
 - 1267.36106085 lam_DG2_14_1 - 1742.49664632 lam_DG2_14_2
 - 2217.56418054 lam_DG2_14_3 - 2692.56368165 lam_DG2_14_4
 - 3167.4951678 lam_DG2_14_5 = 0
PWL_cost_DG2_15: FC_DG2_15 - 792.157405997 lam_DG2_15_0
 - 1267.36106085 lam_DG2_15_1 - 1742.49664632 lam_DG2_15_2
 - 2217.56418054 lam_DG2_15_3 - 2692.56368165 lam_DG2_15_4
 - 3167.4951678 lam_DG2_15_5 = 0
PWL_cost_DG2_16: FC_DG2_16 - 792.157405997 lam_DG2_16_0
 - 1267.36106085 lam_DG2_16_1 - 1742.49664632 lam_DG2_16_2
 - 2217.56418054 lam_DG2_16_3 - 2692.56368165 lam_DG2_16_4
 - 3167.4951678 lam_DG2_16_5 = 0
PWL_cost_DG2_17: FC_DG2_17 - 792.157405997 lam_DG2_17_0
 - 1267.36106085 lam_DG2_17_1 - 1742.49664632 lam_DG2_17_2
 - 2217.56418054 lam_DG2_17_3 - 2692.56368165 lam_DG2_17_4
 - 3167.4951678 lam_DG2_17_5 = 0
PWL_cost_DG2_2: FC_DG2_2 - 792.157405997 lam_DG2_2_0
 - 1267.36106085 lam_DG2_2_1 - 1742.49664632 lam_DG2_2_2
 - 2217.56418054 lam_DG2_2_3 - 2692.56368165 lam_DG2_2_4
 - 3167.4951678 lam_DG2_2_5 = 0
PWL_cost_DG2_3: FC_DG2_3 - 792.157405997 lam_DG2_3_0
 - 1267.36106085 lam_DG2_3_1 - 1742.49664632 lam_DG2_3_2
 - 2217.56418054 lam_DG2_3_3 - 2692.56368165 lam_DG2_3_4
 - 3167.4951678 lam_DG2_3_5 = 0
PWL_cost_DG2_4: FC_DG2_4 - 792.157405997 lam_DG2_4_0
 - 1267.36106085 lam_DG2_4_1 - 1742.49664632 lam_DG2_4_2
 - 2217.56418054 lam_DG2_4_3 - 2692.56368165 lam_DG2_4_4
 - 3167.4951678 lam_DG2_4_5 = 0
PWL_cost_DG2_5: FC_DG2_5 - 792.157405997 lam_DG2_5_0
 - 1267.36106085 lam_DG2_5_1 - 1742.49664632 lam_DG2_5_2
 - 2217.56418054 lam_DG2_5_3 - 2692.56368165 lam_DG2_5_4
 - 3167.4951678 lam_DG2_5_5 = 0
PWL_cost_DG2_6: FC_DG2_6 - 792.157405997 lam_DG2_6_0
 - 1267.36106085 lam_DG2_6_1 - 1742.49664632 lam_DG2_6_2
 - 2217.56418054 lam_DG2_6_3 - 2692.56368165 lam_DG2_6_4
 - 3167.4951678 lam_DG2_6_5 = 0
PWL_cost_DG2_7: FC_DG2_7 - 792.157405997 lam_DG2_7_0
 - 1267.36106085 lam_DG2_7_1 - 1742.49664632 lam_DG2_7_2
 - 2217.56418054 lam_DG2_7_3 - 2692.56368165 lam_DG2_7_4
 - 3167.4951678 lam_DG2_7_5 = 0
PWL_cost_DG2_8: FC_DG2_8 - 792.157405997 lam_DG2_8_0
 - 1267.36106085 lam_DG2_8_1 - 1742.49664632 lam_DG2_8_2
 - 2217.56418054 lam_DG2_8_3 - 2692.56368165 lam_DG2_8_4
 - 3167.4951678 lam_DG2_8_5 = 0
PWL_cost_DG2_9: FC_DG2_9 - 792.157405997 lam_DG2_9_0
 - 1267.36106085 lam_DG2_9_1 - 1742.49664632 lam_DG2_9_2
 - 2217.56418054 lam_DG2_9_3 - 2692.56368165 lam_DG2_9_4
 - 3167.4951678 lam_DG2_9_5 = 0
PWL_cost_DG3_0: FC_DG3_0 - 598.95429615 lam_DG3_0_0
 - 957.719069798 lam_DG3_0_1 - 1316.02954931 lam_DG3_0_2
 - 1673.88701014 lam_DG3_0_3 - 2031.29272775 lam_DG3_0_4
 - 2388.2479776 lam_DG3_0_5 = 0
PWL_cost_DG3_1: FC_DG3_1 - 598.95429615 lam_DG3_1_0
 - 957.719069798 lam_DG3_1_1 - 1316.02954931 lam_DG3_1_2
 - 1673.88701014 lam_DG3_1_3 - 2031.29272775 lam_DG3_1_4
 - 2388.2479776 lam_DG3_1_5 = 0
PWL_cost_DG3_10: FC_DG3_10 - 598.95429615 lam_DG3_10_0
 - 957.719069798 lam_DG3_10_1 - 1316.02954931 lam_DG3_10_2
 - 1673.88701014 lam_DG3_10_3 - 2031.29272775 lam_DG3_10_4
 - 2388.2479776 lam_DG3_10_5 = 0
PWL_cost_DG3_11: FC_DG3_11 - 598.95429615 lam_DG3_11_0
 - 957.719069798 lam_DG3_11_1 - 1316.02954931 lam_DG3_11_2
 - 1673.88701014 lam_DG3_11_3 - 2031.29272775 lam_DG3_11_4
 - 2388.2479776 lam_DG3_11_5 = 0
PWL_cost_DG3_12: FC_DG3_12 - 598.95429615 lam_DG3_12_0
 - 957.719069798 lam_DG3_12_1 - 1316.02954931 lam_DG3_12_2
 - 1673.88701014 lam_DG3_12_3 - 2031.29272775 lam_DG3_12_4
 - 2388.2479776 lam_DG3_12_5 = 0
PWL_cost_DG3_13: FC_DG3_13 - 598.95429615 lam_DG3_13_0
 - 957.719069798 lam_DG3_13_1 - 1316.02954931 lam_DG3_13_2
 - 1673.88701014 lam_DG3_13_3 - 2031.29272775 lam_DG3_13_4
 - 2388.2479776 lam_DG3_13_5 = 0
PWL_cost_DG3_14: FC_DG3_14 - 598.95429615 lam_DG3_14_0
 - 957.719069798 lam_DG3_14_1 - 1316.02954931 lam_DG3_14_2
 - 1673.88701014 lam_DG3_14_3 - 2031.29272775 lam_DG3_14_4
 - 2388.2479776 lam_DG3_14_5 = 0
PWL_cost_DG3_15: FC_DG3_15 - 598.95429615 lam_DG3_15_0
 - 957.719069798 lam_DG3_15_1 - 1316.02954931 lam_DG3_15_2
 - 1673.88701014 lam_DG3_15_3 - 2031.29272775 lam_DG3_15_4
 - 2388.2479776 lam_DG3_15_5 = 0
PWL_cost_DG3_16: FC_DG3_16 - 598.95429615 lam_DG3_16_0
 - 957.719069798 lam_DG3_16_1 - 1316.02954931 lam_DG3_16_2
 - 1673.88701014 lam_DG3_16_3 - 2031.29272775 lam_DG3_16_4
 - 2388.2479776 lam_DG3_16_5 = 0
PWL_cost_DG3_17: FC_DG3_17 - 598.95429615 lam_DG3_17_0
 - 957.719069798 lam_DG3_17_1 - 1316.02954931 lam_DG3_17_2
 - 1673.88701014 lam_DG3_17_3 - 2031.29272775 lam_DG3_17_4
 - 2388.2479776 lam_DG3_17_5 = 0
PWL_cost_DG3_2: FC_DG3_2 - 598.95429615 lam_DG3_2_0
 - 957.719069798 lam_DG3_2_1 - 1316.02954931 lam_DG3_2_2
 - 1673.88701014 lam_DG3_2_3 - 2031.29272775 lam_DG3_2_4
 - 2388.2479776 lam_DG3_2_5 = 0
PWL_cost_DG3_3: FC_DG3_3 - 598.95429615 lam_DG3_3_0
 - 957.719069798 lam_DG3_3_1 - 1316.02954931 lam_DG3_3_2
 - 1673.88701014 lam_DG3_3_3 - 2031.29272775 lam_DG3_3_4
 - 2388.2479776 lam_DG3_3_5 = 0
PWL_cost_DG3_4: FC_DG3_4 - 598.95429615 lam_DG3_4_0
 - 957.719069798 lam_DG3_4_1 - 1316.02954931 lam_DG3_4_2
 - 1673.88701014 lam_DG3_4_3 - 2031.29272775 lam_DG3_4_4
 - 2388.2479776 lam_DG3_4_5 = 0
PWL_cost_DG3_5: FC_DG3_5 - 598.95429615 lam_DG3_5_0
 - 957.719069798 lam_DG3_5_1 - 1316.02954931 lam_DG3_5_2
 - 1673.88701014 lam_DG3_5_3 - 2031.29272775 lam_DG3_5_4
 - 2388.2479776 lam_DG3_5_5 = 0
PWL_cost_DG3_6: FC_DG3_6 - 598.95429615 lam_DG3_6_0
 - 957.719069798 lam_DG3_6_1 - 1316.02954931 lam_DG3_6_2
 - 1673.88701014 lam_DG3_6_3 - 2031.29272775 lam_DG3_6_4
 - 2388.2479776 lam_DG3_6_5 = 0
PWL_cost_DG3_7: FC_DG3_7 - 598.95429615 lam_DG3_7_0
 - 957.719069798 lam_DG3_7_1 - 1316.02954931 lam_DG3_7_2
 - 1673.88701014 lam_DG3_7_3 - 2031.29272775 lam_DG3_7_4
 - 2388.2479776 lam_DG3_7_5 = 0
PWL_cost_DG3_8: FC_DG3_8 - 598.95429615 lam_DG3_8_0
 - 957.719069798 lam_DG3_8_1 - 1316.02954931 lam_DG3_8_2
 - 1673.88701014 lam_DG3_8_3 - 2031.29272775 lam_DG3_8_4
 - 2388.2479776 lam_DG3_8_5 = 0
PWL_cost_DG3_9: FC_DG3_9 - 598.95429615 lam_DG3_9_0
 - 957.719069798 lam_DG3_9_1 - 1316.02954931 lam_DG3_9_2
 - 1673.88701014 lam_DG3_9_3 - 2031.29272775 lam_DG3_9_4
 - 2388.2479776 lam_DG3_9_5 = 0
PWL_power_DG1_0: P_DG1_0 - 3.6 lam_DG1_0_0 - 5.76 lam_DG1_0_1
 - 7.92 lam_DG1_0_2 - 10.08 lam_DG1_0_3 - 12.24 lam_DG1_0_4 - 14.4 lam_DG1_0_5
 = 0
PWL_power_DG1_1: P_DG1_1 - 3.6 lam_DG1_1_0 - 5.76 lam_DG1_1_1
 - 7.92 lam_DG1_1_2 - 10.08 lam_DG1_1_3 - 12.24 lam_DG1_1_4 - 14.4 lam_DG1_1_5
 = 0
PWL_power_DG1_10: P_DG1_10 - 3.6 lam_DG1_10_0 - 5.76 lam_DG1_10_1
 - 7.92 lam_DG1_10_2 - 10.08 lam_DG1_10_3 - 12.24 lam_DG1_10_4
 - 14.4 lam_DG1_10_5 = 0
PWL_power_DG1_11: P_DG1_11 - 3.6 lam_DG1_11_0 - 5.76 lam_DG1_11_1
 - 7.92 lam_DG1_11_2 - 10.08 lam_DG1_11_3 - 12.24 lam_DG1_11_4
 - 14.4 lam_DG1_11_5 = 0
PWL_power_DG1_12: P_DG1_12 - 3.6 lam_DG1_12_0 - 5.76 lam_DG1_12_1
 - 7.92 lam_DG1_12_2 - 10.08 lam_DG1_12_3 - 12.24 lam_DG1_12_4
 - 14.4 lam_DG1_12_5 = 0
PWL_power_DG1_13: P_DG1_13 - 3.6 lam_DG1_13_0 - 5.76 lam_DG1_13_1
 - 7.92 lam_DG1_13_2 - 10.08 lam_DG1_13_3 - 12.24 lam_DG1_13_4
 - 14.4 lam_DG1_13_5 = 0
PWL_power_DG1_14: P_DG1_14 - 3.6 lam_DG1_14_0 - 5.76 lam_DG1_14_1
 - 7.92 lam_DG1_14_2 - 10.08 lam_DG1_14_3 - 12.24 lam_DG1_14_4
 - 14.4 lam_DG1_14_5 = 0
PWL_power_DG1_15: P_DG1_15 - 3.6 lam_DG1_15_0 - 5.76 lam_DG1_15_1
 - 7.92 lam_DG1_15_2 - 10.08 lam_DG1_15_3 - 12.24 lam_DG1_15_4
 - 14.4 lam_DG1_15_5 = 0
PWL_power_DG1_16: P_DG1_16 - 3.6 lam_DG1_16_0 - 5.76 lam_DG1_16_1
 - 7.92 lam_DG1_16_2 - 10.08 lam_DG1_16_3 - 12.24 lam_DG1_16_4
 - 14.4 lam_DG1_16_5 = 0
PWL_power_DG1_17: P_DG1_17 - 3.6 lam_DG1_17_0 - 5.76 lam_DG1_17_1
 - 7.92 lam_DG1_17_2 - 10.08 lam_DG1_17_3 - 12.24 lam_DG1_17_4
 - 14.4 lam_DG1_17_5 = 0
PWL_power_DG1_2: P_DG1_2 - 3.6 lam_DG1_2_0 - 5.76 lam_DG1_2_1
 - 7.92 lam_DG1_2_2 - 10.08 lam_DG1_2_3 - 12.24 lam_DG1_2_4 - 14.4 lam_DG1_2_5
 = 0
PWL_power_DG1_3: P_DG1_3 - 3.6 lam_DG1_3_0 - 5.76 lam_DG1_3_1
 - 7.92 lam_DG1_3_2 - 10.08 lam_DG1_3_3 - 12.24 lam_DG1_3_4 - 14.4 lam_DG1_3_5
 = 0
PWL_power_DG1_4: P_DG1_4 - 3.6 lam_DG1_4_0 - 5.76 lam_DG1_4_1
 - 7.92 lam_DG1_4_2 - 10.08 lam_DG1_4_3 - 12.24 lam_DG1_4_4 - 14.4 lam_DG1_4_5
 = 0
PWL_power_DG1_5: P_DG1_5 - 3.6 lam_DG1_5_0 - 5.76 lam_DG1_5_1
 - 7.92 lam_DG1_5_2 - 10.08 lam_DG1_5_3 - 12.24 lam_DG1_5_4 - 14.4 lam_DG1_5_5
 = 0
PWL_power_DG1_6: P_DG1_6 - 3.6 lam_DG1_6_0 - 5.76 lam_DG1_6_1
 - 7.92 lam_DG1_6_2 - 10.08 lam_DG1_6_3 - 12.24 lam_DG1_6_4 - 14.4 lam_DG1_6_5
 = 0
PWL_power_DG1_7: P_DG1_7 - 3.6 lam_DG1_7_0 - 5.76 lam_DG1_7_1
 - 7.92 lam_DG1_7_2 - 10.08 lam_DG1_7_3 - 12.24 lam_DG1_7_4 - 14.4 lam_DG1_7_5
 = 0
PWL_power_DG1_8: P_DG1_8 - 3.6 lam_DG1_8_0 - 5.76 lam_DG1_8_1
 - 7.92 lam_DG1_8_2 - 10.08 lam_DG1_8_3 - 12.24 lam_DG1_8_4 - 14.4 lam_DG1_8_5
 = 0
PWL_power_DG1_9: P_DG1_9 - 3.6 lam_DG1_9_0 - 5.76 lam_DG1_9_1
 - 7.92 lam_DG1_9_2 - 10.08 lam_DG1_9_3 - 12.24 lam_DG1_9_4 - 14.4 lam_DG1_9_5
 = 0
PWL_power_DG2_0: P_DG2_0 - 3.6 lam_DG2_0_0 - 5.76 lam_DG2_0_1
 - 7.92 lam_DG2_0_2 - 10.08 lam_DG2_0_3 - 12.24 lam_DG2_0_4 - 14.4 lam_DG2_0_5
 = 0
PWL_power_DG2_1: P_DG2_1 - 3.6 lam_DG2_1_0 - 5.76 lam_DG2_1_1
 - 7.92 lam_DG2_1_2 - 10.08 lam_DG2_1_3 - 12.24 lam_DG2_1_4 - 14.4 lam_DG2_1_5
 = 0
PWL_power_DG2_10: P_DG2_10 - 3.6 lam_DG2_10_0 - 5.76 lam_DG2_10_1
 - 7.92 lam_DG2_10_2 - 10.08 lam_DG2_10_3 - 12.24 lam_DG2_10_4
 - 14.4 lam_DG2_10_5 = 0
PWL_power_DG2_11: P_DG2_11 - 3.6 lam_DG2_11_0 - 5.76 lam_DG2_11_1
 - 7.92 lam_DG2_11_2 - 10.08 lam_DG2_11_3 - 12.24 lam_DG2_11_4
 - 14.4 lam_DG2_11_5 = 0
PWL_power_DG2_12: P_DG2_12 - 3.6 lam_DG2_12_0 - 5.76 lam_DG2_12_1
 - 7.92 lam_DG2_12_2 - 10.08 lam_DG2_12_3 - 12.24 lam_DG2_12_4
 - 14.4 lam_DG2_12_5 = 0
PWL_power_DG2_13: P_DG2_13 - 3.6 lam_DG2_13_0 - 5.76 lam_DG2_13_1
 - 7.92 lam_DG2_13_2 - 10.08 lam_DG2_13_3 - 12.24 lam_DG2_13_4
 - 14.4 lam_DG2_13_5 = 0
PWL_power_DG2_14: P_DG2_14 - 3.6 lam_DG2_14_0 - 5.76 lam_DG2_14_1
 - 7.92 lam_DG2_14_2 - 10.08 lam_DG2_14_3 - 12.24 lam_DG2_14_4
 - 14.4 lam_DG2_14_5 = 0
PWL_power_DG2_15: P_DG2_15 - 3.6 lam_DG2_15_0 - 5.76 lam_DG2_15_1
 - 7.92 lam_DG2_15_2 - 10.08 lam_DG2_15_3 - 12.24 lam_DG2_15_4
 - 14.4 lam_DG2_15_5 = 0
PWL_power_DG2_16: P_DG2_16 - 3.6 lam_DG2_16_0 - 5.76 lam_DG2_16_1
 - 7.92 lam_DG2_16_2 - 10.08 lam_DG2_16_3 - 12.24 lam_DG2_16_4
 - 14.4 lam_DG2_16_5 = 0
PWL_power_DG2_17: P_DG2_17 - 3.6 lam_DG2_17_0 - 5.76 lam_DG2_17_1
 - 7.92 lam_DG2_17_2 - 10.08 lam_DG2_17_3 - 12.24 lam_DG2_17_4
 - 14.4 lam_DG2_17_5 = 0
PWL_power_DG2_2: P_DG2_2 - 3.6 lam_DG2_2_0 - 5.76 lam_DG2_2_1
 - 7.92 lam_DG2_2_2 - 10.08 lam_DG2_2_3 - 12.24 lam_DG2_2_4 - 14.4 lam_DG2_2_5
 = 0
PWL_power_DG2_3: P_DG2_3 - 3.6 lam_DG2_3_0 - 5.76 lam_DG2_3_1
 - 7.92 lam_DG2_3_2 - 10.08 lam_DG2_3_3 - 12.24 lam_DG2_3_4 - 14.4 lam_DG2_3_5
 = 0
PWL_power_DG2_4: P_DG2_4 - 3.6 lam_DG2_4_0 - 5.76 lam_DG2_4_1
 - 7.92 lam_DG2_4_2 - 10.08 lam_DG2_4_3 - 12.24 lam_DG2_4_4 - 14.4 lam_DG2_4_5
 = 0
PWL_power_DG2_5: P_DG2_5 - 3.6 lam_DG2_5_0 - 5.76 lam_DG2_5_1
 - 7.92 lam_DG2_5_2 - 10.08 lam_DG2_5_3 - 12.24 lam_DG2_5_4 - 14.4 lam_DG2_5_5
 = 0
PWL_power_DG2_6: P_DG2_6 - 3.6 lam_DG2_6_0 - 5.76 lam_DG2_6_1
 - 7.92 lam_DG2_6_2 - 10.08 lam_DG2_6_3 - 12.24 lam_DG2_6_4 - 14.4 lam_DG2_6_5
 = 0
PWL_power_DG2_7: P_DG2_7 - 3.6 lam_DG2_7_0 - 5.76 lam_DG2_7_1
 - 7.92 lam_DG2_7_2 - 10.08 lam_DG2_7_3 - 12.24 lam_DG2_7_4 - 14.4 lam_DG2_7_5
 = 0
PWL_power_DG2_8: P_DG2_8 - 3.6 lam_DG2_8_0 - 5.76 lam_DG2_8_1
 - 7.92 lam_DG2_8_2 - 10.08 lam_DG2_8_3 - 12.24 lam_DG2_8_4 - 14.4 lam_DG2_8_5
 = 0
PWL_power_DG2_9: P_DG2_9 - 3.6 lam_DG2_9_0 - 5.76 lam_DG2_9_1
 - 7.92 lam_DG2_9_2 - 10.08 lam_DG2_9_3 - 12.24 lam_DG2_9_4 - 14.4 lam_DG2_9_5
 = 0
PWL_power_DG3_0: P_DG3_0 - 2.7 lam_DG3_0_0 - 4.32 lam_DG3_0_1
 - 5.94 lam_DG3_0_2 - 7.56 lam_DG3_0_3 - 9.18 lam_DG3_0_4 - 10.8 lam_DG3_0_5
 = 0
PWL_power_DG3_1: P_DG3_1 - 2.7 lam_DG3_1_0 - 4.32 lam_DG3_1_1
 - 5.94 lam_DG3_1_2 - 7.56 lam_DG3_1_3 - 9.18 lam_DG3_1_4 - 10.8 lam_DG3_1_5
 = 0
PWL_power_DG3_10: P_DG3_10 - 2.7 lam_DG3_10_0 - 4.32 lam_DG3_10_1
 - 5.94 lam_DG3_10_2 - 7.56 lam_DG3_10_3 - 9.18 lam_DG3_10_4
 - 10.8 lam_DG3_10_5 = 0
PWL_power_DG3_11: P_DG3_11 - 2.7 lam_DG3_11_0 - 4.32 lam_DG3_11_1
 - 5.94 lam_DG3_11_2 - 7.56 lam_DG3_11_3 - 9.18 lam_DG3_11_4
 - 10.8 lam_DG3_11_5 = 0
PWL_power_DG3_12: P_DG3_12 - 2.7 lam_DG3_12_0 - 4.32 lam_DG3_12_1
 - 5.94 lam_DG3_12_2 - 7.56 lam_DG3_12_3 - 9.18 lam_DG3_12_4
 - 10.8 lam_DG3_12_5 = 0
PWL_power_DG3_13: P_DG3_13 - 2.7 lam_DG3_13_0 - 4.32 lam_DG3_13_1
 - 5.94 lam_DG3_13_2 - 7.56 lam_DG3_13_3 - 9.18 lam_DG3_13_4
 - 10.8 lam_DG3_13_5 = 0
PWL_power_DG3_14: P_DG3_14 - 2.7 lam_DG3_14_0 - 4.32 lam_DG3_14_1
 - 5.94 lam_DG3_14_2 - 7.56 lam_DG3_14_3 - 9.18 lam_DG3_14_4
 - 10.8 lam_DG3_14_5 = 0
PWL_power_DG3_15: P_DG3_15 - 2.7 lam_DG3_15_0 - 4.32 lam_DG3_15_1
 - 5.94 lam_DG3_15_2 - 7.56 lam_DG3_15_3 - 9.18 lam_DG3_15_4
 - 10.8 lam_DG3_15_5 = 0
PWL_power_DG3_16: P_DG3_16 - 2.7 lam_DG3_16_0 - 4.32 lam_DG3_16_1
 - 5.94 lam_DG3_16_2 - 7.56 lam_DG3_16_3 - 9.18 lam_DG3_16_4
 - 10.8 lam_DG3_16_5 = 0
PWL_power_DG3_17: P_DG3_17 - 2.7 lam_DG3_17_0 - 4.32 lam_DG3_17_1
 - 5.94 lam_DG3_17_2 - 7.56 lam_DG3_17_3 - 9.18 lam_DG3_17_4
 - 10.8 lam_DG3_17_5 = 0
PWL_power_DG3_2: P_DG3_2 - 2.7 lam_DG3_2_0 - 4.32 lam_DG3_2_1
 - 5.94 lam_DG3_2_2 - 7.56 lam_DG3_2_3 - 9.18 lam_DG3_2_4 - 10.8 lam_DG3_2_5
 = 0
PWL_power_DG3_3: P_DG3_3 - 2.7 lam_DG3_3_0 - 4.32 lam_DG3_3_1
 - 5.94 lam_DG3_3_2 - 7.56 lam_DG3_3_3 - 9.18 lam_DG3_3_4 - 10.8 lam_DG3_3_5
 = 0
PWL_power_DG3_4: P_DG3_4 - 2.7 lam_DG3_4_0 - 4.32 lam_DG3_4_1
 - 5.94 lam_DG3_4_2 - 7.56 lam_DG3_4_3 - 9.18 lam_DG3_4_4 - 10.8 lam_DG3_4_5
 = 0
PWL_power_DG3_5: P_DG3_5 - 2.7 lam_DG3_5_0 - 4.32 lam_DG3_5_1
 - 5.94 lam_DG3_5_2 - 7.56 lam_DG3_5_3 - 9.18 lam_DG3_5_4 - 10.8 lam_DG3_5_5
 = 0
PWL_power_DG3_6: P_DG3_6 - 2.7 lam_DG3_6_0 - 4.32 lam_DG3_6_1
 - 5.94 lam_DG3_6_2 - 7.56 lam_DG3_6_3 - 9.18 lam_DG3_6_4 - 10.8 lam_DG3_6_5
 = 0
PWL_power_DG3_7: P_DG3_7 - 2.7 lam_DG3_7_0 - 4.32 lam_DG3_7_1
 - 5.94 lam_DG3_7_2 - 7.56 lam_DG3_7_3 - 9.18 lam_DG3_7_4 - 10.8 lam_DG3_7_5
 = 0
PWL_power_DG3_8: P_DG3_8 - 2.7 lam_DG3_8_0 - 4.32 lam_DG3_8_1
 - 5.94 lam_DG3_8_2 - 7.56 lam_DG3_8_3 - 9.18 lam_DG3_8_4 - 10.8 lam_DG3_8_5
 = 0
PWL_power_DG3_9: P_DG3_9 - 2.7 lam_DG3_9_0 - 4.32 lam_DG3_9_1
 - 5.94 lam_DG3_9_2 - 7.56 lam_DG3_9_3 - 9.18 lam_DG3_9_4 - 10.8 lam_DG3_9_5
 = 0
PWL_sum_DG1_0: lam_DG1_0_0 + lam_DG1_0_1 + lam_DG1_0_2 + lam_DG1_0_3
 + lam_DG1_0_4 + lam_DG1_0_5 - u_DG1_0 = 0
PWL_sum_DG1_1: lam_DG1_1_0 + lam_DG1_1_1 + lam_DG1_1_2 + lam_DG1_1_3
 + lam_DG1_1_4 + lam_DG1_1_5 - u_DG1_1 = 0
PWL_sum_DG1_10: lam_DG1_10_0 + lam_DG1_10_1 + lam_DG1_10_2 + lam_DG1_10_3
 + lam_DG1_10_4 + lam_DG1_10_5 - u_DG1_10 = 0
PWL_sum_DG1_11: lam_DG1_11_0 + lam_DG1_11_1 + lam_DG1_11_2 + lam_DG1_11_3
 + lam_DG1_11_4 + lam_DG1_11_5 - u_DG1_11 = 0
PWL_sum_DG1_12: lam_DG1_12_0 + lam_DG1_12_1 + lam_DG1_12_2 + lam_DG1_12_3
 + lam_DG1_12_4 + lam_DG1_12_5 - u_DG1_12 = 0
PWL_sum_DG1_13: lam_DG1_13_0 + lam_DG1_13_1 + lam_DG1_13_2 + lam_DG1_13_3
 + lam_DG1_13_4 + lam_DG1_13_5 - u_DG1_13 = 0
PWL_sum_DG1_14: lam_DG1_14_0 + lam_DG1_14_1 + lam_DG1_14_2 + lam_DG1_14_3
 + lam_DG1_14_4 + lam_DG1_14_5 - u_DG1_14 = 0
PWL_sum_DG1_15: lam_DG1_15_0 + lam_DG1_15_1 + lam_DG1_15_2 + lam_DG1_15_3
 + lam_DG1_15_4 + lam_DG1_15_5 - u_DG1_15 = 0
PWL_sum_DG1_16: lam_DG1_16_0 + lam_DG1_16_1 + lam_DG1_16_2 + lam_DG1_16_3
 + lam_DG1_16_4 + lam_DG1_16_5 - u_DG1_16 = 0
PWL_sum_DG1_17: lam_DG1_17_0 + lam_DG1_17_1 + lam_DG1_17_2 + lam_DG1_17_3
 + lam_DG1_17_4 + lam_DG1_17_5 - u_DG1_17 = 0
PWL_sum_DG1_2: lam_DG1_2_0 + lam_DG1_2_1 + lam_DG1_2_2 + lam_DG1_2_3
 + lam_DG1_2_4 + lam_DG1_2_5 - u_DG1_2 = 0
PWL_sum_DG1_3: lam_DG1_3_0 + lam_DG1_3_1 + lam_DG1_3_2 + lam_DG1_3_3
 + lam_DG1_3_4 + lam_DG1_3_5 - u_DG1_3 = 0
PWL_sum_DG1_4: lam_DG1_4_0 + lam_DG1_4_1 + lam_DG1_4_2 + lam_DG1_4_3
 + lam_DG1_4_4 + lam_DG1_4_5 - u_DG1_4 = 0
PWL_sum_DG1_5: lam_DG1_5_0 + lam_DG1_5_1 + lam_DG1_5_2 + lam_DG1_5_3
 + lam_DG1_5_4 + lam_DG1_5_5 - u_DG1_5 = 0
PWL_sum_DG1_6: lam_DG1_6_0 + lam_DG1_6_1 + lam_DG1_6_2 + lam_DG1_6_3
 + lam_DG1_6_4 + lam_DG1_6_5 - u_DG1_6 = 0
PWL_sum_DG1_7: lam_DG1_7_0 + lam_DG1_7_1 + lam_DG1_7_2 + lam_DG1_7_3
 + lam_DG1_7_4 + lam_DG1_7_5 - u_DG1_7 = 0
PWL_sum_DG1_8: lam_DG1_8_0 + lam_DG1_8_1 + lam_DG1_8_2 + lam_DG1_8_3
 + lam_DG1_8_4 + lam_DG1_8_5 - u_DG1_8 = 0
PWL_sum_DG1_9: lam_DG1_9_0 + lam_DG1_9_1 + lam_DG1_9_2 + lam_DG1_9_3
 + lam_DG1_9_4 + lam_DG1_9_5 - u_DG1_9 = 0
PWL_sum_DG2_0: lam_DG2_0_0 + lam_DG2_0_1 + lam_DG2_0_2 + lam_DG2_0_3
 + lam_DG2_0_4 + lam_DG2_0_5 - u_DG2_0 = 0
PWL_sum_DG2_1: lam_DG2_1_0 + lam_DG2_1_1 + lam_DG2_1_2 + lam_DG2_1_3
 + lam_DG2_1_4 + lam_DG2_1_5 - u_DG2_1 = 0
PWL_sum_DG2_10: lam_DG2_10_0 + lam_DG2_10_1 + lam_DG2_10_2 + lam_DG2_10_3
 + lam_DG2_10_4 + lam_DG2_10_5 - u_DG2_10 = 0
PWL_sum_DG2_11: lam_DG2_11_0 + lam_DG2_11_1 + lam_DG2_11_2 + lam_DG2_11_3
 + lam_DG2_11_4 + lam_DG2_11_5 - u_DG2_11 = 0
PWL_sum_DG2_12: lam_DG2_12_0 + lam_DG2_12_1 + lam_DG2_12_2 + lam_DG2_12_3
 + lam_DG2_12_4 + lam_DG2_12_5 - u_DG2_12 = 0
PWL_sum_DG2_13: lam_DG2_13_0 + lam_DG2_13_1 + lam_DG2_13_2 + lam_DG2_13_3
 + lam_DG2_13_4 + lam_DG2_13_5 - u_DG2_13 = 0
PWL_sum_DG2_14: lam_DG2_14_0 + lam_DG2_14_1 + lam_DG2_14_2 + lam_DG2_14_3
 + lam_DG2_14_4 + lam_DG2_14_5 - u_DG2_14 = 0
PWL_sum_DG2_15: lam_DG2_15_0 + lam_DG2_15_1 + lam_DG2_15_2 + lam_DG2_15_3
 + lam_DG2_15_4 + lam_DG2_15_5 - u_DG2_15 = 0
PWL_sum_DG2_16: lam_DG2_16_0 + lam_DG2_16_1 + lam_DG2_16_2 + lam_DG2_16_3
 + lam_DG2_16_4 + lam_DG2_16_5 - u_DG2_16 = 0
PWL_sum_DG2_17: lam_DG2_17_0 + lam_DG2_17_1 + lam_DG2_17_2 + lam_DG2_17_3
 + lam_DG2_17_4 + lam_DG2_17_5 - u_DG2_17 = 0
PWL_sum_DG2_2: lam_DG2_2_0 + lam_DG2_2_1 + lam_DG2_2_2 + lam_DG2_2_3
 + lam_DG2_2_4 + lam_DG2_2_5 - u_DG2_2 = 0
PWL_sum_DG2_3: lam_DG2_3_0 + lam_DG2_3_1 + lam_DG2_3_2 + lam_DG2_3_3
 + lam_DG2_3_4 + lam_DG2_3_5 - u_DG2_3 = 0
PWL_sum_DG2_4: lam_DG2_4_0 + lam_DG2_4_1 + lam_DG2_4_2 + lam_DG2_4_3
 + lam_DG2_4_4 + lam_DG2_4_5 - u_DG2_4 = 0
PWL_sum_DG2_5: lam_DG2_5_0 + lam_DG2_5_1 + lam_DG2_5_2 + lam_DG2_5_3
 + lam_DG2_5_4 + lam_DG2_5_5 - u_DG2_5 = 0
PWL_sum_DG2_6: lam_DG2_6_0 + lam_DG2_6_1 + lam_DG2_6_2 + lam_DG2_6_3
 + lam_DG2_6_4 + lam_DG2_6_5 - u_DG2_6 = 0
PWL_sum_DG2_7: lam_DG2_7_0 + lam_DG2_7_1 + lam_DG2_7_2 + lam_DG2_7_3
 + lam_DG2_7_4 + lam_DG2_7_5 - u_DG2_7 = 0
PWL_sum_DG2_8: lam_DG2_8_0 + lam_DG2_8_1 + lam_DG2_8_2 + lam_DG2_8_3
 + lam_DG2_8_4 + lam_DG2_8_5 - u_DG2_8 = 0
PWL_sum_DG2_9: lam_DG2_9_0 + lam_DG2_9_1 + lam_DG2_9_2 + lam_DG2_9_3
 + lam_DG2_9_4 + lam_DG2_9_5 - u_DG2_9 = 0
PWL_sum_DG3_0: lam_DG3_0_0 + lam_DG3_0_1 + lam_DG3_0_2 + lam_DG3_0_3
 + lam_DG3_0_4 + lam_DG3_0_5 - u_DG3_0 = 0
PWL_sum_DG3_1: lam_DG3_1_0 + lam_DG3_1_1 + lam_DG3_1_2 + lam_DG3_1_3
 + lam_DG3_1_4 + lam_DG3_1_5 - u_DG3_1 = 0
PWL_sum_DG3_10: lam_DG3_10_0 + lam_DG3_10_1 + lam_DG3_10_2 + lam_DG3_10_3
 + lam_DG3_10_4 + lam_DG3_10_5 - u_DG3_10 = 0
PWL_sum_DG3_11: lam_DG3_11_0 + lam_DG3_11_1 + lam_DG3_11_2 + lam_DG3_11_3
 + lam_DG3_11_4 + lam_DG3_11_5 - u_DG3_11 = 0
PWL_sum_DG3_12: lam_DG3_12_0 + lam_DG3_12_1 + lam_DG3_12_2 + lam_DG3_12_3
 + lam_DG3_12_4 + lam_DG3_12_5 - u_DG3_12 = 0
PWL_sum_DG3_13: lam_DG3_13_0 + lam_DG3_13_1 + lam_DG3_13_2 + lam_DG3_13_3
 + lam_DG3_13_4 + lam_DG3_13_5 - u_DG3_13 = 0
PWL_sum_DG3_14: lam_DG3_14_0 + lam_DG3_14_1 + lam_DG3_14_2 + lam_DG3_14_3
 + lam_DG3_14_4 + lam_DG3_14_5 - u_DG3_14 = 0
PWL_sum_DG3_15: lam_DG3_15_0 + lam_DG3_15_1 + lam_DG3_15_2 + lam_DG3_15_3
 + lam_DG3_15_4 + lam_DG3_15_5 - u_DG3_15 = 0
PWL_sum_DG3_16: lam_DG3_16_0 + lam_DG3_16_1 + lam_DG3_16_2 + lam_DG3_16_3
 + lam_DG3_16_4 + lam_DG3_16_5 - u_DG3_16 = 0
PWL_sum_DG3_17: lam_DG3_17_0 + lam_DG3_17_1 + lam_DG3_17_2 + lam_DG3_17_3
 + lam_DG3_17_4 + lam_DG3_17_5 - u_DG3_17 = 0
PWL_sum_DG3_2: lam_DG3_2_0 + lam_DG3_2_1 + lam_DG3_2_2 + lam_DG3_2_3
 + lam_DG3_2_4 + lam_DG3_2_5 - u_DG3_2 = 0
PWL_sum_DG3_3: lam_DG3_3_0 + lam_DG3_3_1 + lam_DG3_3_2 + lam_DG3_3_3
 + lam_DG3_3_4 + lam_DG3_3_5 - u_DG3_3 = 0
PWL_sum_DG3_4: lam_DG3_4_0 + lam_DG3_4_1 + lam_DG3_4_2 + lam_DG3_4_3
 + lam_DG3_4_4 + lam_DG3_4_5 - u_DG3_4 = 0
PWL_sum_DG3_5: lam_DG3_5_0 + lam_DG3_5_1 + lam_DG3_5_2 + lam_DG3_5_3
 + lam_DG3_5_4 + lam_DG3_5_5 - u_DG3_5 = 0
PWL_sum_DG3_6: lam_DG3_6_0 + lam_DG3_6_1 + lam_DG3_6_2 + lam_DG3_6_3
 + lam_DG3_6_4 + lam_DG3_6_5 - u_DG3_6 = 0
PWL_sum_DG3_7: lam_DG3_7_0 + lam_DG3_7_1 + lam_DG3_7_2 + lam_DG3_7_3
 + lam_DG3_7_4 + lam_DG3_7_5 - u_DG3_7 = 0
PWL_sum_DG3_8: lam_DG3_8_0 + lam_DG3_8_1 + lam_DG3_8_2 + lam_DG3_8_3
 + lam_DG3_8_4 + lam_DG3_8_5 - u_DG3_8 = 0
PWL_sum_DG3_9: lam_DG3_9_0 + lam_DG3_9_1 + lam_DG3_9_2 + lam_DG3_9_3
 + lam_DG3_9_4 + lam_DG3_9_5 - u_DG3_9 = 0
PowerBalance_0: P_DG1_0 + P_DG2_0 + P_DG3_0 - P_c_0 + P_dc_0 = 11
PowerBalance_1: P_DG1_1 + P_DG2_1 + P_DG3_1 - P_c_1 + P_dc_1 = 11
PowerBalance_10: P_DG1_10 + P_DG2_10 + P_DG3_10 - P_c_10 + P_dc_10 = 11
PowerBalance_11: P_DG1_11 + P_DG2_11 + P_DG3_11 - P_c_11 + P_dc_11 = 11
PowerBalance_12: P_DG1_12 + P_DG2_12 + P_DG3_12 - P_c_12 + P_dc_12 = 11
PowerBalance_13: P_DG1_13 + P_DG2_13 + P_DG3_13 - P_c_13 + P_dc_13 = 11
PowerBalance_14: P_DG1_14 + P_DG2_14 + P_DG3_14 - P_c_14 + P_dc_14 = 11
PowerBalance_15: P_DG1_15 + P_DG2_15 + P_DG3_15 - P_c_15 + P_dc_15 = 11
PowerBalance_16: P_DG1_16 + P_DG2_16 + P_DG3_16 - P_c_16 + P_dc_16 = 11
PowerBalance_17: P_DG1_17 + P_DG2_17 + P_DG3_17 - P_c_17 + P_dc_17 = 11
PowerBalance_2: P_DG1_2 + P_DG2_2 + P_DG3_2 - P_c_2 + P_dc_2 = 11
PowerBalance_3: P_DG1_3 + P_DG2_3 + P_DG3_3 - P_c_3 + P_dc_3 = 11
PowerBalance_4: P_DG1_4 + P_DG2_4 + P_DG3_4 - P_c_4 + P_dc_4 = 11
PowerBalance_5: P_DG1_5 + P_DG2_5 + P_DG3_5 - P_c_5 + P_dc_5 = 11
PowerBalance_6: P_DG1_6 + P_DG2_6 + P_DG3_6 - P_c_6 + P_dc_6 = 11
PowerBalance_7: P_DG1_7 + P_DG2_7 + P_DG3_7 - P_c_7 + P_dc_7 = 11
PowerBalance_8: P_DG1_8 + P_DG2_8 + P_DG3_8 - P_c_8 + P_dc_8 = 11
PowerBalance_9: P_DG1_9 + P_DG2_9 + P_DG3_9 - P_c_9 + P_dc_9 = 11
RampDown_DG1_1: P_DG1_0 - P_DG1_1 <= 3.6
RampDown_DG1_10: - P_DG1_10 + P_DG1_9 <= 3.6
RampDown_DG1_11: P_DG1_10 - P_DG1_11 <= 3.6
RampDown_DG1_12: P_DG1_11 - P_DG1_12 <= 3.6
RampDown_DG1_13: P_DG1_12 - P_DG1_13 <= 3.6
RampDown_DG1_14: P_DG1_13 - P_DG1_14 <= 3.6
RampDown_DG1_15: P_DG1_14 - P_DG1_15 <= 3.6
RampDown_DG1_16: P_DG1_15 - P_DG1_16 <= 3.6
RampDown_DG1_17: P_DG1_16 - P_DG1_17 <= 3.6
RampDown_DG1_2: P_DG1_1 - P_DG1_2 <= 3.6
RampDown_DG1_3: P_DG1_2 - P_DG1_3 <= 3.6
RampDown_DG1_4: P_DG1_3 - P_DG1_4 <= 3.6
RampDown_DG1_5: P_DG1_4 - P_DG1_5 <= 3.6
RampDown_DG1_6: P_DG1_5 - P_DG1_6 <= 3.6
RampDown_DG1_7: P_DG1_6 - P_DG1_7 <= 3.6
RampDown_DG1_8: P_DG1_7 - P_DG1_8 <= 3.6
RampDown_DG1_9: P_DG1_8 - P_DG1_9 <= 3.6
RampDown_DG2_1: P_DG2_0 - P_DG2_1 <= 3.6
RampDown_DG2_10: - P_DG2_10 + P_DG2_9 <= 3.6
RampDown_DG2_11: P_DG2_10 - P_DG2_11 <= 3.6
RampDown_DG2_12: P_DG2_11 - P_DG2_12 <= 3.6
RampDown_DG2_13: P_DG2_12 - P_DG2_13 <= 3.6
RampDown_DG2_14: P_DG2_13 - P_DG2_14 <= 3.6
RampDown_DG2_15: P_DG2_14 - P_DG2_15 <= 3.6
RampDown_DG2_16: P_DG2_15 - P_DG2_16 <= 3.6
RampDown_DG2_17: P_DG2_16 - P_DG2_17 <= 3.6
RampDown_DG2_2: P_DG2_1 - P_DG2_2 <= 3.6
RampDown_DG2_3: P_DG2_2 - P_DG2_3 <= 3.6
RampDown_DG2_4: P_DG2_3 - P_DG2_4 <= 3.6
RampDown_DG2_5: P_DG2_4 - P_DG2_5 <= 3.6
RampDown_DG2_6: P_DG2_5 - P_DG2_6 <= 3.6
RampDown_DG2_7: P_DG2_6 - P_DG2_7 <= 3.6
RampDown_DG2_8: P_DG2_7 - P_DG2_8 <= 3.6
RampDown_DG2_9: P_DG2_8 - P_DG2_9 <= 3.6
RampDown_DG3_1: P_DG3_0 - P_DG3_1 <= 2.7
RampDown_DG3_10: - P_DG3_10 + P_DG3_9 <= 2.7
RampDown_DG3_11: P_DG3_10 - P_DG3_11 <= 2.7
RampDown_DG3_12: P_DG3_11 - P_DG3_12 <= 2.7
RampDown_DG3_13: P_DG3_12 - P_DG3_13 <= 2.7
RampDown_DG3_14: P_DG3_13 - P_DG3_14 <= 2.7
RampDown_DG3_15: P_DG3_14 - P_DG3_15 <= 2.7
RampDown_DG3_16: P_DG3_15 - P_DG3_16 <= 2.7
RampDown_DG3_17: P_DG3_16 - P_DG3_17 <= 2.7
RampDown_DG3_2: P_DG3_1 - P_DG3_2 <= 2.7
RampDown_DG3_3: P_DG3_2 - P_DG3_3 <= 2.7
RampDown_DG3_4: P_DG3_3 - P_DG3_4 <= 2.7
RampDown_DG3_5: P_DG3_4 - P_DG3_5 <= 2.7
RampDown_DG3_6: P_DG3_5 - P_DG3_6 <= 2.7
RampDown_DG3_7: P_DG3_6 - P_DG3_7 <= 2.7
RampDown_DG3_8: P_DG3_7 - P_DG3_8 <= 2.7
RampDown_DG3_9: P_DG3_8 - P_DG3_9 <= 2.7
RampUp_DG1_1: - P_DG1_0 + P_DG1_1 <= 3.6
RampUp_DG1_10: P_DG1_10 - P_DG1_9 <= 3.6
RampUp_DG1_11: - P_DG1_10 + P_DG1_11 <= 3.6
RampUp_DG1_12: - P_DG1_11 + P_DG1_12 <= 3.6
RampUp_DG1_13: - P_DG1_12 + P_DG1_13 <= 3.6
RampUp_DG1_14: - P_DG1_13 + P_DG1_14 <= 3.6
RampUp_DG1_15: - P_DG1_14 + P_DG1_15 <= 3.6
RampUp_DG1_16: - P_DG1_15 + P_DG1_16 <= 3.6
RampUp_DG1_17: - P_DG1_16 + P_DG1_17 <= 3.6
RampUp_DG1_2: - P_DG1_1 + P_DG1_2 <= 3.6
RampUp_DG1_3: - P_DG1_2 + P_DG1_3 <= 3.6
RampUp_DG1_4: - P_DG1_3 + P_DG1_4 <= 3.6
RampUp_DG1_5: - P_DG1_4 + P_DG1_5 <= 3.6
RampUp_DG1_6: - P_DG1_5 + P_DG1_6 <= 3.6
RampUp_DG1_7: - P_DG1_6 + P_DG1_7 <= 3.6
RampUp_DG1_8: - P_DG1_7 + P_DG1_8 <= 3.6
RampUp_DG1_9: - P_DG1_8 + P_DG1_9 <= 3.6
RampUp_DG2_1: - P_DG2_0 + P_DG2_1 <= 3.6
RampUp_DG2_10: P_DG2_10 - P_DG2_9 <= 3.6
RampUp_DG2_11: - P_DG2_10 + P_DG2_11 <= 3.6
RampUp_DG2_12: - P_DG2_11 + P_DG2_12 <= 3.6
RampUp_DG2_13: - P_DG2_12 + P_DG2_13 <= 3.6
RampUp_DG2_14: - P_DG2_13 + P_DG2_14 <= 3.6
RampUp_DG2_15: - P_DG2_14 + P_DG2_15 <= 3.6
RampUp_DG2_16: - P_DG2_15 + P_DG2_16 <= 3.6
RampUp_DG2_17: - P_DG2_16 + P_DG2_17 <= 3.6
RampUp_DG2_2: - P_DG2_1 + P_DG2_2 <= 3.6
RampUp_DG2_3: - P_DG2_2 + P_DG2_3 <= 3.6
RampUp_DG2_4: - P_DG2_3 + P_DG2_4 <= 3.6
RampUp_DG2_5: - P_DG2_4 + P_DG2_5 <= 3.6
RampUp_DG2_6: - P_DG2_5 + P_DG2_6 <= 3.6
RampUp_DG2_7: - P_DG2_6 + P_DG2_7 <= 3.6
RampUp_DG2_8: - P_DG2_7 + P_DG2_8 <= 3.6
RampUp_DG2_9: - P_DG2_8 + P_DG2_9 <= 3.6
RampUp_DG3_1: - P_DG3_0 + P_DG3_1 <= 2.7
RampUp_DG3_10: P_DG3_10 - P_DG3_9 <= 2.7
RampUp_DG3_11: - P_DG3_10 + P_DG3_11 <= 2.7
RampUp_DG3_12: - P_DG3_11 + P_DG3_12 <= 2.7
RampUp_DG3_13: - P_DG3_12 + P_DG3_13 <= 2.7
RampUp_DG3_14: - P_DG3_13 + P_DG3_14 <= 2.7
RampUp_DG3_15: - P_DG3_14 + P_DG3_15 <= 2.7
RampUp_DG3_16: - P_DG3_15 + P_DG3_16 <= 2.7
RampUp_DG3_17: - P_DG3_16 + P_DG3_17 <= 2.7
RampUp_DG3_2: - P_DG3_1 + P_DG3_2 <= 2.7
RampUp_DG3_3: - P_DG3_2 + P_DG3_3 <= 2.7
RampUp_DG3_4: - P_DG3_3 + P_DG3_4 <= 2.7
RampUp_DG3_5: - P_DG3_4 + P_DG3_5 <= 2.7
RampUp_DG3_6: - P_DG3_5 + P_DG3_6 <= 2.7
RampUp_DG3_7: - P_DG3_6 + P_DG3_7 <= 2.7
RampUp_DG3_8: - P_DG3_7 + P_DG3_8 <= 2.7
RampUp_DG3_9: - P_DG3_8 + P_DG3_9 <= 2.7
SOC_update_0: - 0.0158333333333 P_c_0 + 0.0171821305842 P_dc_0 + SOC_0 = 0.7
SOC_update_1: - 0.0158333333333 P_c_1 + 0.0171821305842 P_dc_1 - SOC_0 + SOC_1
 = 0
SOC_update_10: - 0.0158333333333 P_c_10 + 0.0171821305842 P_dc_10 + SOC_10
 - SOC_9 = 0
SOC_update_11: - 0.0158333333333 P_c_11 + 0.0171821305842 P_dc_11 - SOC_10
 + SOC_11 = 0
SOC_update_12: - 0.0158333333333 P_c_12 + 0.0171821305842 P_dc_12 - SOC_11
 + SOC_12 = 0
SOC_update_13: - 0.0158333333333 P_c_13 + 0.0171821305842 P_dc_13 - SOC_12
 + SOC_13 = 0
SOC_update_14: - 0.0158333333333 P_c_14 + 0.0171821305842 P_dc_14 - SOC_13
 + SOC_14 = 0
SOC_update_15: - 0.0158333333333 P_c_15 + 0.0171821305842 P_dc_15 - SOC_14
 + SOC_15 = 0
SOC_update_16: - 0.0158333333333 P_c_16 + 0.0171821305842 P_dc_16 - SOC_15
 + SOC_16 = 0
SOC_update_17: - 0.0158333333333 P_c_17 + 0.0171821305842 P_dc_17 - SOC_16
 + SOC_17 = 0
SOC_update_2: - 0.0158333333333 P_c_2 + 0.0171821305842 P_dc_2 - SOC_1 + SOC_2
 = 0
SOC_update_3: - 0.0158333333333 P_c_3 + 0.0171821305842 P_dc_3 - SOC_2 + SOC_3
 = 0
SOC_update_4: - 0.0158333333333 P_c_4 + 0.0171821305842 P_dc_4 - SOC_3 + SOC_4
 = 0
SOC_update_5: - 0.0158333333333 P_c_5 + 0.0171821305842 P_dc_5 - SOC_4 + SOC_5
 = 0
SOC_update_6: - 0.0158333333333 P_c_6 + 0.0171821305842 P_dc_6 - SOC_5 + SOC_6
 = 0
SOC_update_7: - 0.0158333333333 P_c_7 + 0.0171821305842 P_dc_7 - SOC_6 + SOC_7
 = 0
SOC_update_8: - 0.0158333333333 P_c_8 + 0.0171821305842 P_dc_8 - SOC_7 + SOC_8
 = 0
SOC_update_9: - 0.0158333333333 P_c_9 + 0.0171821305842 P_dc_9 - SOC_8 + SOC_9
 = 0
SOS2_lam_first_DG1_0: - delta_DG1_0_0 + lam_DG1_0_0 <= 0
SOS2_lam_first_DG1_1: - delta_DG1_1_0 + lam_DG1_1_0 <= 0
SOS2_lam_first_DG1_10: - delta_DG1_10_0 + lam_DG1_10_0 <= 0
SOS2_lam_first_DG1_11: - delta_DG1_11_0 + lam_DG1_11_0 <= 0
SOS2_lam_first_DG1_12: - delta_DG1_12_0 + lam_DG1_12_0 <= 0
SOS2_lam_first_DG1_13: - delta_DG1_13_0 + lam_DG1_13_0 <= 0
SOS2_lam_first_DG1_14: - delta_DG1_14_0 + lam_DG1_14_0 <= 0
SOS2_lam_first_DG1_15: - delta_DG1_15_0 + lam_DG1_15_0 <= 0
SOS2_lam_first_DG1_16: - delta_DG1_16_0 + lam_DG1_16_0 <= 0
SOS2_lam_first_DG1_17: - delta_DG1_17_0 + lam_DG1_17_0 <= 0
SOS2_lam_first_DG1_2: - delta_DG1_2_0 + lam_DG1_2_0 <= 0
SOS2_lam_first_DG1_3: - delta_DG1_3_0 + lam_DG1_3_0 <= 0
SOS2_lam_first_DG1_4: - delta_DG1_4_0 + lam_DG1_4_0 <= 0
SOS2_lam_first_DG1_5: - delta_DG1_5_0 + lam_DG1_5_0 <= 0
SOS2_lam_first_DG1_6: - delta_DG1_6_0 + lam_DG1_6_0 <= 0
SOS2_lam_first_DG1_7: - delta_DG1_7_0 + lam_DG1_7_0 <= 0
SOS2_lam_first_DG1_8: - delta_DG1_8_0 + lam_DG1_8_0 <= 0
SOS2_lam_first_DG1_9: - delta_DG1_9_0 + lam_DG1_9_0 <= 0
SOS2_lam_first_DG2_0: - delta_DG2_0_0 + lam_DG2_0_0 <= 0
SOS2_lam_first_DG2_1: - delta_DG2_1_0 + lam_DG2_1_0 <= 0
SOS2_lam_first_DG2_10: - delta_DG2_10_0 + lam_DG2_10_0 <= 0
SOS2_lam_first_DG2_11: - delta_DG2_11_0 + lam_DG2_11_0 <= 0
SOS2_lam_first_DG2_12: - delta_DG2_12_0 + lam_DG2_12_0 <= 0
SOS2_lam_first_DG2_13: - delta_DG2_13_0 + lam_DG2_13_0 <= 0
SOS2_lam_first_DG2_14: - delta_DG2_14_0 + lam_DG2_14_0 <= 0
SOS2_lam_first_DG2_15: - delta_DG2_15_0 + lam_DG2_15_0 <= 0
SOS2_lam_first_DG2_16: - delta_DG2_16_0 + lam_DG2_16_0 <= 0
SOS2_lam_first_DG2_17: - delta_DG2_17_0 + lam_DG2_17_0 <= 0
SOS2_lam_first_DG2_2: - delta_DG2_2_0 + lam_DG2_2_0 <= 0
SOS2_lam_first_DG2_3: - delta_DG2_3_0 + lam_DG2_3_0 <= 0
SOS2_lam_first_DG2_4: - delta_DG2_4_0 + lam_DG2_4_0 <= 0
SOS2_lam_first_DG2_5: - delta_DG2_5_0 + lam_DG2_5_0 <= 0
SOS2_lam_first_DG2_6: - delta_DG2_6_0 + lam_DG2_6_0 <= 0
SOS2_lam_first_DG2_7: - delta_DG2_7_0 + lam_DG2_7_0 <= 0
SOS2_lam_first_DG2_8: - delta_DG2_8_0 + lam_DG2_8_0 <= 0
SOS2_lam_first_DG2_9: - delta_DG2_9_0 + lam_DG2_9_0 <= 0
SOS2_lam_first_DG3_0: - delta_DG3_0_0 + lam_DG3_0_0 <= 0
SOS2_lam_first_DG3_1: - delta_DG3_1_0 + lam_DG3_1_0 <= 0
SOS2_lam_first_DG3_10: - delta_DG3_10_0 + lam_DG3_10_0 <= 0
SOS2_lam_first_DG3_11: - delta_DG3_11_0 + lam_DG3_11_0 <= 0
SOS2_lam_first_DG3_12: - delta_DG3_12_0 + lam_DG3_12_0 <= 0
SOS2_lam_first_DG3_13: - delta_DG3_13_0 + lam_DG3_13_0 <= 0
SOS2_lam_first_DG3_14: - delta_DG3_14_0 + lam_DG3_14_0 <= 0
SOS2_lam_first_DG3_15: - delta_DG3_15_0 + lam_DG3_15_0 <= 0
SOS2_lam_first_DG3_16: - delta_DG3_16_0 + lam_DG3_16_0 <= 0
SOS2_lam_first_DG3_17: - delta_DG3_17_0 + lam_DG3_17_0 <= 0
SOS2_lam_first_DG3_2: - delta_DG3_2_0 + lam_DG3_2_0 <= 0
SOS2_lam_first_DG3_3: - delta_DG3_3_0 + lam_DG3_3_0 <= 0
SOS2_lam_first_DG3_4: - delta_DG3_4_0 + lam_DG3_4_0 <= 0
SOS2_lam_first_DG3_5: - delta_DG3_5_0 + lam_DG3_5_0 <= 0
SOS2_lam_first_DG3_6: - delta_DG3_6_0 + lam_DG3_6_0 <= 0
SOS2_lam_first_DG3_7: - delta_DG3_7_0 + lam_DG3_7_0 <= 0
SOS2_lam_first_DG3_8: - delta_DG3_8_0 + lam_DG3_8_0 <= 0
SOS2_lam_first_DG3_9: - delta_DG3_9_0 + lam_DG3_9_0 <= 0
SOS2_lam_last_DG1_0: - delta_DG1_0_4 + lam_DG1_0_5 <= 0
SOS2_lam_last_DG1_1: - delta_DG1_1_4 + lam_DG1_1_5 <= 0
SOS2_lam_last_DG1_10: - delta_DG1_10_4 + lam_DG1_10_5 <= 0
SOS2_lam_last_DG1_11: - delta_DG1_11_4 + lam_DG1_11_5 <= 0
SOS2_lam_last_DG1_12: - delta_DG1_12_4 + lam_DG1_12_5 <= 0
SOS2_lam_last_DG1_13: - delta_DG1_13_4 + lam_DG1_13_5 <= 0
SOS2_lam_last_DG1_14: - delta_DG1_14_4 + lam_DG1_14_5 <= 0
SOS2_lam_last_DG1_15: - delta_DG1_15_4 + lam_DG1_15_5 <= 0
SOS2_lam_last_DG1_16: - delta_DG1_16_4 + lam_DG1_16_5 <= 0
SOS2_lam_last_DG1_17: - delta_DG1_17_4 + lam_DG1_17_5 <= 0
SOS2_lam_last_DG1_2: - delta_DG1_2_4 + lam_DG1_2_5 <= 0
SOS2_lam_last_DG1_3: - delta_DG1_3_4 + lam_DG1_3_5 <= 0
SOS2_lam_last_DG1_4: - delta_DG1_4_4 + lam_DG1_4_5 <= 0
SOS2_lam_last_DG1_5: - delta_DG1_5_4 + lam_DG1_5_5 <= 0
SOS2_lam_last_DG1_6: - delta_DG1_6_4 + lam_DG1_6_5 <= 0
SOS2_lam_last_DG1_7: - delta_DG1_7_4 + lam_DG1_7_5 <= 0
SOS2_lam_last_DG1_8: - delta_DG1_8_4 + lam_DG1_8_5 <= 0
SOS2_lam_last_DG1_9: - delta_DG1_9_4 + lam_DG1_9_5 <= 0
SOS2_lam_last_DG2_0: - delta_DG2_0_4 + lam_DG2_0_5 <= 0
SOS2_lam_last_DG2_1: - delta_DG2_1_4 + lam_DG2_1_5 <= 0
SOS2_lam_last_DG2_10: - delta_DG2_10_4 + lam_DG2_10_5 <= 0
SOS2_lam_last_DG2_11: - delta_DG2_11_4 + lam_DG2_11_5 <= 0
SOS2_lam_last_DG2_12: - delta_DG2_12_4 + lam_DG2_12_5 <= 0
SOS2_lam_last_DG2_13: - delta_DG2_13_4 + lam_DG2_13_5 <= 0
SOS2_lam_last_DG2_14: - delta_DG2_14_4 + lam_DG2_14_5 <= 0
SOS2_lam_last_DG2_15: - delta_DG2_15_4 + lam_DG2_15_5 <= 0
SOS2_lam_last_DG2_16: - delta_DG2_16_4 + lam_DG2_16_5 <= 0
SOS2_lam_last_DG2_17: - delta_DG2_17_4 + lam_DG2_17_5 <= 0
SOS2_lam_last_DG2_2: - delta_DG2_2_4 + lam_DG2_2_5 <= 0
SOS2_lam_last_DG2_3: - delta_DG2_3_4 + lam_DG2_3_5 <= 0
SOS2_lam_last_DG2_4: - delta_DG2_4_4 + lam_DG2_4_5 <= 0
SOS2_lam_last_DG2_5: - delta_DG2_5_4 + lam_DG2_5_5 <= 0
SOS2_lam_last_DG2_6: - delta_DG2_6_4 + lam_DG2_6_5 <= 0
SOS2_lam_last_DG2_7: - delta_DG2_7_4 + lam_DG2_7_5 <= 0
SOS2_lam_last_DG2_8: - delta_DG2_8_4 + lam_DG2_8_5 <= 0
SOS2_lam_last_DG2_9: - delta_DG2_9_4 + lam_DG2_9_5 <= 0
SOS2_lam_last_DG3_0: - delta_DG3_0_4 + lam_DG3_0_5 <= 0
SOS2_lam_last_DG3_1: - delta_DG3_1_4 + lam_DG3_1_5 <= 0
SOS2_lam_last_DG3_10: - delta_DG3_10_4 + lam_DG3_10_5 <= 0
SOS2_lam_last_DG3_11: - delta_DG3_11_4 + lam_DG3_11_5 <= 0
SOS2_lam_last_DG3_12: - delta_DG3_12_4 + lam_DG3_12_5 <= 0
SOS2_lam_last_DG3_13: - delta_DG3_13_4 + lam_DG3_13_5 <= 0
SOS2_lam_last_DG3_14: - delta_DG3_14_4 + lam_DG3_14_5 <= 0
SOS2_lam_last_DG3_15: - delta_DG3_15_4 + lam_DG3_15_5 <= 0
SOS2_lam_last_DG3_16: - delta_DG3_16_4 + lam_DG3_16_5 <= 0
SOS2_lam_last_DG3_17: - delta_DG3_17_4 + lam_DG3_17_5 <= 0
SOS2_lam_last_DG3_2: - delta_DG3_2_4 + lam_DG3_2_5 <= 0
SOS2_lam_last_DG3_3: - delta_DG3_3_4 + lam_DG3_3_5 <= 0
SOS2_lam_last_DG3_4: - delta_DG3_4_4 + lam_DG3_4_5 <= 0
SOS2_lam_last_DG3_5: - delta_DG3_5_4 + lam_DG3_5_5 <= 0
SOS2_lam_last_DG3_6: - delta_DG3_6_4 + lam_DG3_6_5 <= 0
SOS2_lam_last_DG3_7: - delta_DG3_7_4 + lam_DG3_7_5 <= 0
SOS2_lam_last_DG3_8: - delta_DG3_8_4 + lam_DG3_8_5 <= 0
SOS2_lam_last_DG3_9: - delta_DG3_9_4 + lam_DG3_9_5 <= 0
SOS2_lam_mid_DG1_0_1: - delta_DG1_0_0 - delta_DG1_0_1 + lam_DG1_0_1 <= 0
SOS2_lam_mid_DG1_0_2: - delta_DG1_0_1 - delta_DG1_0_2 + lam_DG1_0_2 <= 0
SOS2_lam_mid_DG1_0_3: - delta_DG1_0_2 - delta_DG1_0_3 + lam_DG1_0_3 <= 0
SOS2_lam_mid_DG1_0_4: - delta_DG1_0_3 - delta_DG1_0_4 + lam_DG1_0_4 <= 0
SOS2_lam_mid_DG1_10_1: - delta_DG1_10_0 - delta_DG1_10_1 + lam_DG1_10_1 <= 0
SOS2_lam_mid_DG1_10_2: - delta_DG1_10_1 - delta_DG1_10_2 + lam_DG1_10_2 <= 0
SOS2_lam_mid_DG1_10_3: - delta_DG1_10_2 - delta_DG1_10_3 + lam_DG1_10_3 <= 0
SOS2_lam_mid_DG1_10_4: - delta_DG1_10_3 - delta_DG1_10_4 + lam_DG1_10_4 <= 0
SOS2_lam_mid_DG1_11_1: - delta_DG1_11_0 - delta_DG1_11_1 + lam_DG1_11_1 <= 0
SOS2_lam_mid_DG1_11_2: - delta_DG1_11_1 - delta_DG1_11_2 + lam_DG1_11_2 <= 0
SOS2_lam_mid_DG1_11_3: - delta_DG1_11_2 - delta_DG1_11_3 + lam_DG1_11_3 <= 0
SOS2_lam_mid_DG1_11_4: - delta_DG1_11_3 - delta_DG1_11_4 + lam_DG1_11_4 <= 0
SOS2_lam_mid_DG1_12_1: - delta_DG1_12_0 - delta_DG1_12_1 + lam_DG1_12_1 <= 0
SOS2_lam_mid_DG1_12_2: - delta_DG1_12_1 - delta_DG1_12_2 + lam_DG1_12_2 <= 0
SOS2_lam_mid_DG1_12_3: - delta_DG1_12_2 - delta_DG1_12_3 + lam_DG1_12_3 <= 0
SOS2_lam_mid_DG1_12_4: - delta_DG1_12_3 - delta_DG1_12_4 + lam_DG1_12_4 <= 0
SOS2_lam_mid_DG1_13_1: - delta_DG1_13_0 - delta_DG1_13_1 + lam_DG1_13_1 <= 0
SOS2_lam_mid_DG1_13_2: - delta_DG1_13_1 - delta_DG1_13_2 + lam_DG1_13_2 <= 0
SOS2_lam_mid_DG1_13_3: - delta_DG1_13_2 - delta_DG1_13_3 + lam_DG1_13_3 <= 0
SOS2_lam_mid_DG1_13_4: - delta_DG1_13_3 - delta_DG1_13_4 + lam_DG1_13_4 <= 0
SOS2_lam_mid_DG1_14_1: - delta_DG1_14_0 - delta_DG1_14_1 + lam_DG1_14_1 <= 0
SOS2_lam_mid_DG1_14_2: - delta_DG1_14_1 - delta_DG1_14_2 + lam_DG1_14_2 <= 0
SOS2_lam_mid_DG1_14_3: - delta_DG1_14_2 - delta_DG1_14_3 + lam_DG1_14_3 <= 0
SOS2_lam_mid_DG1_14_4: - delta_DG1_14_3 - delta_DG1_14_4 + lam_DG1_14_4 <= 0
SOS2_lam_mid_DG1_15_1: - delta_DG1_15_0 - delta_DG1_15_1 + lam_DG1_15_1 <= 0
SOS2_lam_mid_DG1_15_2: - delta_DG1_15_1 - delta_DG1_15_2 + lam_DG1_15_2 <= 0
SOS2_lam_mid_DG1_15_3: - delta_DG1_15_2 - delta_DG1_15_3 + lam_DG1_15_3 <= 0
SOS2_lam_mid_DG1_15_4: - delta_DG1_15_3 - delta_DG1_15_4 + lam_DG1_15_4 <= 0
SOS2_lam_mid_DG1_16_1: - delta_DG1_16_0 - delta_DG1_16_1 + lam_DG1_16_1 <= 0
SOS2_lam_mid_DG1_16_2: - delta_DG1_16_1 - delta_DG1_16_2 + lam_DG1_16_2 <= 0
SOS2_lam_mid_DG1_16_3: - delta_DG1_16_2 - delta_DG1_16_3 + lam_DG1_16_3 <= 0
SOS2_lam_mid_DG1_16_4: - delta_DG1_16_3 - delta_DG1_16_4 + lam_DG1_16_4 <= 0
SOS2_lam_mid_DG1_17_1: - delta_DG1_17_0 - delta_DG1_17_1 + lam_DG1_17_1 <= 0
SOS2_lam_mid_DG1_17_2: - delta_DG1_17_1 - delta_DG1_17_2 + lam_DG1_17_2 <= 0
SOS2_lam_mid_DG1_17_3: - delta_DG1_17_2 - delta_DG1_17_3 + lam_DG1_17_3 <= 0
SOS2_lam_mid_DG1_17_4: - delta_DG1_17_3 - delta_DG1_17_4 + lam_DG1_17_4 <= 0
SOS2_lam_mid_DG1_1_1: - delta_DG1_1_0 - delta_DG1_1_1 + lam_DG1_1_1 <= 0
SOS2_lam_mid_DG1_1_2: - delta_DG1_1_1 - delta_DG1_1_2 + lam_DG1_1_2 <= 0
SOS2_lam_mid_DG1_1_3: - delta_DG1_1_2 - delta_DG1_1_3 + lam_DG1_1_3 <= 0
SOS2_lam_mid_DG1_1_4: - delta_DG1_1_3 - delta_DG1_1_4 + lam_DG1_1_4 <= 0
SOS2_lam_mid_DG1_2_1: - delta_DG1_2_0 - delta_DG1_2_1 + lam_DG1_2_1 <= 0
SOS2_lam_mid_DG1_2_2: - delta_DG1_2_1 - delta_DG1_2_2 + lam_DG1_2_2 <= 0
SOS2_lam_mid_DG1_2_3: - delta_DG1_2_2 - delta_DG1_2_3 + lam_DG1_2_3 <= 0
SOS2_lam_mid_DG1_2_4: - delta_DG1_2_3 - delta_DG1_2_4 + lam_DG1_2_4 <= 0
SOS2_lam_mid_DG1_3_1: - delta_DG1_3_0 - delta_DG1_3_1 + lam_DG1_3_1 <= 0
SOS2_lam_mid_DG1_3_2: - delta_DG1_3_1 - delta_DG1_3_2 + lam_DG1_3_2 <= 0
SOS2_lam_mid_DG1_3_3: - delta_DG1_3_2 - delta_DG1_3_3 + lam_DG1_3_3 <= 0
SOS2_lam_mid_DG1_3_4: - delta_DG1_3_3 - delta_DG1_3_4 + lam_DG1_3_4 <= 0
SOS2_lam_mid_DG1_4_1: - delta_DG1_4_0 - delta_DG1_4_1 + lam_DG1_4_1 <= 0
SOS2_lam_mid_DG1_4_2: - delta_DG1_4_1 - delta_DG1_4_2 + lam_DG1_4_2 <= 0
SOS2_lam_mid_DG1_4_3: - delta_DG1_4_2 - delta_DG1_4_3 + lam_DG1_4_3 <= 0
SOS2_lam_mid_DG1_4_4: - delta_DG1_4_3 - delta_DG1_4_4 + lam_DG1_4_4 <= 0
SOS2_lam_mid_DG1_5_1: - delta_DG1_5_0 - delta_DG1_5_1 + lam_DG1_5_1 <= 0
SOS2_lam_mid_DG1_5_2: - delta_DG1_5_1 - delta_DG1_5_2 + lam_DG1_5_2 <= 0
SOS2_lam_mid_DG1_5_3: - delta_DG1_5_2 - delta_DG1_5_3 + lam_DG1_5_3 <= 0
SOS2_lam_mid_DG1_5_4: - delta_DG1_5_3 - delta_DG1_5_4 + lam_DG1_5_4 <= 0
SOS2_lam_mid_DG1_6_1: - delta_DG1_6_0 - delta_DG1_6_1 + lam_DG1_6_1 <= 0
SOS2_lam_mid_DG1_6_2: - delta_DG1_6_1 - delta_DG1_6_2 + lam_DG1_6_2 <= 0
SOS2_lam_mid_DG1_6_3: - delta_DG1_6_2 - delta_DG1_6_3 + lam_DG1_6_3 <= 0
SOS2_lam_mid_DG1_6_4: - delta_DG1_6_3 - delta_DG1_6_4 + lam_DG1_6_4 <= 0
SOS2_lam_mid_DG1_7_1: - delta_DG1_7_0 - delta_DG1_7_1 + lam_DG1_7_1 <= 0
SOS2_lam_mid_DG1_7_2: - delta_DG1_7_1 - delta_DG1_7_2 + lam_DG1_7_2 <= 0
SOS2_lam_mid_DG1_7_3: - delta_DG1_7_2 - delta_DG1_7_3 + lam_DG1_7_3 <= 0
SOS2_lam_mid_DG1_7_4: - delta_DG1_7_3 - delta_DG1_7_4 + lam_DG1_7_4 <= 0
SOS2_lam_mid_DG1_8_1: - delta_DG1_8_0 - delta_DG1_8_1 + lam_DG1_8_1 <= 0
SOS2_lam_mid_DG1_8_2: - delta_DG1_8_1 - delta_DG1_8_2 + lam_DG1_8_2 <= 0
SOS2_lam_mid_DG1_8_3: - delta_DG1_8_2 - delta_DG1_8_3 + lam_DG1_8_3 <= 0
SOS2_lam_mid_DG1_8_4: - delta_DG1_8_3 - delta_DG1_8_4 + lam_DG1_8_4 <= 0
SOS2_lam_mid_DG1_9_1: - delta_DG1_9_0 - delta_DG1_9_1 + lam_DG1_9_1 <= 0
SOS2_lam_mid_DG1_9_2: - delta_DG1_9_1 - delta_DG1_9_2 + lam_DG1_9_2 <= 0
SOS2_lam_mid_DG1_9_3: - delta_DG1_9_2 - delta_DG1_9_3 + lam_DG1_9_3 <= 0
SOS2_lam_mid_DG1_9_4: - delta_DG1_9_3 - delta_DG1_9_4 + lam_DG1_9_4 <= 0
SOS2_lam_mid_DG2_0_1: - delta_DG2_0_0 - delta_DG2_0_1 + lam_DG2_0_1 <= 0
SOS2_lam_mid_DG2_0_2: - delta_DG2_0_1 - delta_DG2_0_2 + lam_DG2_0_2 <= 0
SOS2_lam_mid_DG2_0_3: - delta_DG2_0_2 - delta_DG2_0_3 + lam_DG2_0_3 <= 0
SOS2_lam_mid_DG2_0_4: - delta_DG2_0_3 - delta_DG2_0_4 + lam_DG2_0_4 <= 0
SOS2_lam_mid_DG2_10_1: - delta_DG2_10_0 - delta_DG2_10_1 + lam_DG2_10_1 <= 0
SOS2_lam_mid_DG2_10_2: - delta_DG2_10_1 - delta_DG2_10_2 + lam_DG2_10_2 <= 0
SOS2_lam_mid_DG2_10_3: - delta_DG2_10_2 - delta_DG2_10_3 + lam_DG2_10_3 <= 0
SOS2_lam_mid_DG2_10_4: - delta_DG2_10_3 - delta_DG2_10_4 + lam_DG2_10_4 <= 0
SOS2_lam_mid_DG2_11_1: - delta_DG2_11_0 - delta_DG2_11_1 + lam_DG2_11_1 <= 0
SOS2_lam_mid_DG2_11_2: - delta_DG2_11_1 - delta_DG2_11_2 + lam_DG2_11_2 <= 0
SOS2_lam_mid_DG2_11_3: - delta_DG2_11_2 - delta_DG2_11_3 + lam_DG2_11_3 <= 0
SOS2_lam_mid_DG2_11_4: - delta_DG2_11_3 - delta_DG2_11_4 + lam_DG2_11_4 <= 0
SOS2_lam_mid_DG2_12_1: - delta_DG2_12_0 - delta_DG2_12_1 + lam_DG2_12_1 <= 0
SOS2_lam_mid_DG2_12_2: - delta_DG2_12_1 - delta_DG2_12_2 + lam_DG2_12_2 <= 0
SOS2_lam_mid_DG2_12_3: - delta_DG2_12_2 - delta_DG2_12_3 + lam_DG2_12_3 <= 0
SOS2_lam_mid_DG2_12_4: - delta_DG2_12_3 - delta_DG2_12_4 + lam_DG2_12_4 <= 0
SOS2_lam_mid_DG2_13_1: - delta_DG2_13_0 - delta_DG2_13_1 + lam_DG2_13_1 <= 0
SOS2_lam_mid_DG2_13_2: - delta_DG2_13_1 - delta_DG2_13_2 + lam_DG2_13_2 <= 0
SOS2_lam_mid_DG2_13_3: - delta_DG2_13_2 - delta_DG2_13_3 + lam_DG2_13_3 <= 0
SOS2_lam_mid_DG2_13_4: - delta_DG2_13_3 - delta_DG2_13_4 + lam_DG2_13_4 <= 0
SOS2_lam_mid_DG2_14_1: - delta_DG2_14_0 - delta_DG2_14_1 + lam_DG2_14_1 <= 0
SOS2_lam_mid_DG2_14_2: - delta_DG2_14_1 - delta_DG2_14_2 + lam_DG2_14_2 <= 0
SOS2_lam_mid_DG2_14_3: - delta_DG2_14_2 - delta_DG2_14_3 + lam_DG2_14_3 <= 0
SOS2_lam_mid_DG2_14_4: - delta_DG2_14_3 - delta_DG2_14_4 + lam_DG2_14_4 <= 0
SOS2_lam_mid_DG2_15_1: - delta_DG2_15_0 - delta_DG2_15_1 + lam_DG2_15_1 <= 0
SOS2_lam_mid_DG2_15_2: - delta_DG2_15_1 - delta_DG2_15_2 + lam_DG2_15_2 <= 0
SOS2_lam_mid_DG2_15_3: - delta_DG2_15_2 - delta_DG2_15_3 + lam_DG2_15_3 <= 0
SOS2_lam_mid_DG2_15_4: - delta_DG2_15_3 - delta_DG2_15_4 + lam_DG2_15_4 <= 0
SOS2_lam_mid_DG2_16_1: - delta_DG2_16_0 - delta_DG2_16_1 + lam_DG2_16_1 <= 0
SOS2_lam_mid_DG2_16_2: - delta_DG2_16_1 - delta_DG2_16_2 + lam_DG2_16_2 <= 0
SOS2_lam_mid_DG2_16_3: - delta_DG2_16_2 - delta_DG2_16_3 + lam_DG2_16_3 <= 0
SOS2_lam_mid_DG2_16_4: - delta_DG2_16_3 - delta_DG2_16_4 + lam_DG2_16_4 <= 0
SOS2_lam_mid_DG2_17_1: - delta_DG2_17_0 - delta_DG2_17_1 + lam_DG2_17_1 <= 0
SOS2_lam_mid_DG2_17_2: - delta_DG2_17_1 - delta_DG2_17_2 + lam_DG2_17_2 <= 0
SOS2_lam_mid_DG2_17_3: - delta_DG2_17_2 - delta_DG2_17_3 + lam_DG2_17_3 <= 0
SOS2_lam_mid_DG2_17_4: - delta_DG2_17_3 - delta_DG2_17_4 + lam_DG2_17_4 <= 0
SOS2_lam_mid_DG2_1_1: - delta_DG2_1_0 - delta_DG2_1_1 + lam_DG2_1_1 <= 0
SOS2_lam_mid_DG2_1_2: - delta_DG2_1_1 - delta_DG2_1_2 + lam_DG2_1_2 <= 0
SOS2_lam_mid_DG2_1_3: - delta_DG2_1_2 - delta_DG2_1_3 + lam_DG2_1_3 <= 0
SOS2_lam_mid_DG2_1_4: - delta_DG2_1_3 - delta_DG2_1_4 + lam_DG2_1_4 <= 0
SOS2_lam_mid_DG2_2_1: - delta_DG2_2_0 - delta_DG2_2_1 + lam_DG2_2_1 <= 0
SOS2_lam_mid_DG2_2_2: - delta_DG2_2_1 - delta_DG2_2_2 + lam_DG2_2_2 <= 0
SOS2_lam_mid_DG2_2_3: - delta_DG2_2_2 - delta_DG2_2_3 + lam_DG2_2_3 <= 0
SOS2_lam_mid_DG2_2_4: - delta_DG2_2_3 - delta_DG2_2_4 + lam_DG2_2_4 <= 0
SOS2_lam_mid_DG2_3_1: - delta_DG2_3_0 - delta_DG2_3_1 + lam_DG2_3_1 <= 0
SOS2_lam_mid_DG2_3_2: - delta_DG2_3_1 - delta_DG2_3_2 + lam_DG2_3_2 <= 0
SOS2_lam_mid_DG2_3_3: - delta_DG2_3_2 - delta_DG2_3_3 + lam_DG2_3_3 <= 0
SOS2_lam_mid_DG2_3_4: - delta_DG2_3_3 - delta_DG2_3_4 + lam_DG2_3_4 <= 0
SOS2_lam_mid_DG2_4_1: - delta_DG2_4_0 - delta_DG2_4_1 + lam_DG2_4_1 <= 0
SOS2_lam_mid_DG2_4_2: - delta_DG2_4_1 - delta_DG2_4_2 + lam_DG2_4_2 <= 0
SOS2_lam_mid_DG2_4_3: - delta_DG2_4_2 - delta_DG2_4_3 + lam_DG2_4_3 <= 0
SOS2_lam_mid_DG2_4_4: - delta_DG2_4_3 - delta_DG2_4_4 + lam_DG2_4_4 <= 0
SOS2_lam_mid_DG2_5_1: - delta_DG2_5_0 - delta_DG2_5_1 + lam_DG2_5_1 <= 0
SOS2_lam_mid_DG2_5_2: - delta_DG2_5_1 - delta_DG2_5_2 + lam_DG2_5_2 <= 0
SOS2_lam_mid_DG2_5_3: - delta_DG2_5_2 - delta_DG2_5_3 + lam_DG2_5_3 <= 0
SOS2_lam_mid_DG2_5_4: - delta_DG2_5_3 - delta_DG2_5_4 + lam_DG2_5_4 <= 0
SOS2_lam_mid_DG2_6_1: - delta_DG2_6_0 - delta_DG2_6_1 + lam_DG2_6_1 <= 0
SOS2_lam_mid_DG2_6_2: - delta_DG2_6_1 - delta_DG2_6_2 + lam_DG2_6_2 <= 0
SOS2_lam_mid_DG2_6_3: - delta_DG2_6_2 - delta_DG2_6_3 + lam_DG2_6_3 <= 0
SOS2_lam_mid_DG2_6_4: - delta_DG2_6_3 - delta_DG2_6_4 + lam_DG2_6_4 <= 0
SOS2_lam_mid_DG2_7_1: - delta_DG2_7_0 - delta_DG2_7_1 + lam_DG2_7_1 <= 0
SOS2_lam_mid_DG2_7_2: - delta_DG2_7_1 - delta_DG2_7_2 + lam_DG2_7_2 <= 0
SOS2_lam_mid_DG2_7_3: - delta_DG2_7_2 - delta_DG2_7_3 + lam_DG2_7_3 <= 0
SOS2_lam_mid_DG2_7_4: - delta_DG2_7_3 - delta_DG2_7_4 + lam_DG2_7_4 <= 0
SOS2_lam_mid_DG2_8_1: - delta_DG2_8_0 - delta_DG2_8_1 + lam_DG2_8_1 <= 0
SOS2_lam_mid_DG2_8_2: - delta_DG2_8_1 - delta_DG2_8_2 + lam_DG2_8_2 <= 0
SOS2_lam_mid_DG2_8_3: - delta_DG2_8_2 - delta_DG2_8_3 + lam_DG2_8_3 <= 0
SOS2_lam_mid_DG2_8_4: - delta_DG2_8_3 - delta_DG2_8_4 + lam_DG2_8_4 <= 0
SOS2_lam_mid_DG2_9_1: - delta_DG2_9_0 - delta_DG2_9_1 + lam_DG2_9_1 <= 0
SOS2_lam_mid_DG2_9_2: - delta_DG2_9_1 - delta_DG2_9_2 + lam_DG2_9_2 <= 0
SOS2_lam_mid_DG2_9_3: - delta_DG2_9_2 - delta_DG2_9_3 + lam_DG2_9_3 <= 0
SOS2_lam_mid_DG2_9_4: - delta_DG2_9_3 - delta_DG2_9_4 + lam_DG2_9_4 <= 0
SOS2_lam_mid_DG3_0_1: - delta_DG3_0_0 - delta_DG3_0_1 + lam_DG3_0_1 <= 0
SOS2_lam_mid_DG3_0_2: - delta_DG3_0_1 - delta_DG3_0_2 + lam_DG3_0_2 <= 0
SOS2_lam_mid_DG3_0_3: - delta_DG3_0_2 - delta_DG3_0_3 + lam_DG3_0_3 <= 0
SOS2_lam_mid_DG3_0_4: - delta_DG3_0_3 - delta_DG3_0_4 + lam_DG3_0_4 <= 0
SOS2_lam_mid_DG3_10_1: - delta_DG3_10_0 - delta_DG3_10_1 + lam_DG3_10_1 <= 0
SOS2_lam_mid_DG3_10_2: - delta_DG3_10_1 - delta_DG3_10_2 + lam_DG3_10_2 <= 0
SOS2_lam_mid_DG3_10_3: - delta_DG3_10_2 - delta_DG3_10_3 + lam_DG3_10_3 <= 0
SOS2_lam_mid_DG3_10_4: - delta_DG3_10_3 - delta_DG3_10_4 + lam_DG3_10_4 <= 0
SOS2_lam_mid_DG3_11_1: - delta_DG3_11_0 - delta_DG3_11_1 + lam_DG3_11_1 <= 0
SOS2_lam_mid_DG3_11_2: - delta_DG3_11_1 - delta_DG3_11_2 + lam_DG3_11_2 <= 0
SOS2_lam_mid_DG3_11_3: - delta_DG3_11_2 - delta_DG3_11_3 + lam_DG3_11_3 <= 0
SOS2_lam_mid_DG3_11_4: - delta_DG3_11_3 - delta_DG3_11_4 + lam_DG3_11_4 <= 0
SOS2_lam_mid_DG3_12_1: - delta_DG3_12_0 - delta_DG3_12_1 + lam_DG3_12_1 <= 0
SOS2_lam_mid_DG3_12_2: - delta_DG3_12_1 - delta_DG3_12_2 + lam_DG3_12_2 <= 0
SOS2_lam_mid_DG3_12_3: - delta_DG3_12_2 - delta_DG3_12_3 + lam_DG3_12_3 <= 0
SOS2_lam_mid_DG3_12_4: - delta_DG3_12_3 - delta_DG3_12_4 + lam_DG3_12_4 <= 0
SOS2_lam_mid_DG3_13_1: - delta_DG3_13_0 - delta_DG3_13_1 + lam_DG3_13_1 <= 0
SOS2_lam_mid_DG3_13_2: - delta_DG3_13_1 - delta_DG3_13_2 + lam_DG3_13_2 <= 0
SOS2_lam_mid_DG3_13_3: - delta_DG3_13_2 - delta_DG3_13_3 + lam_DG3_13_3 <= 0
SOS2_lam_mid_DG3_13_4: - delta_DG3_13_3 - delta_DG3_13_4 + lam_DG3_13_4 <= 0
SOS2_lam_mid_DG3_14_1: - delta_DG3_14_0 - delta_DG3_14_1 + lam_DG3_14_1 <= 0
SOS2_lam_mid_DG3_14_2: - delta_DG3_14_1 - delta_DG3_14_2 + lam_DG3_14_2 <= 0
SOS2_lam_mid_DG3_14_3: - delta_DG3_14_2 - delta_DG3_14_3 + lam_DG3_14_3 <= 0
SOS2_lam_mid_DG3_14_4: - delta_DG3_14_3 - delta_DG3_14_4 + lam_DG3_14_4 <= 0
SOS2_lam_mid_DG3_15_1: - delta_DG3_15_0 - delta_DG3_15_1 + lam_DG3_15_1 <= 0
SOS2_lam_mid_DG3_15_2: - delta_DG3_15_1 - delta_DG3_15_2 + lam_DG3_15_2 <= 0
SOS2_lam_mid_DG3_15_3: - delta_DG3_15_2 - delta_DG3_15_3 + lam_DG3_15_3 <= 0
SOS2_lam_mid_DG3_15_4: - delta_DG3_15_3 - delta_DG3_15_4 + lam_DG3_15_4 <= 0
SOS2_lam_mid_DG3_16_1: - delta_DG3_16_0 - delta_DG3_16_1 + lam_DG3_16_1 <= 0
SOS2_lam_mid_DG3_16_2: - delta_DG3_16_1 - delta_DG3_16_2 + lam_DG3_16_2 <= 0
SOS2_lam_mid_DG3_16_3: - delta_DG3_16_2 - delta_DG3_16_3 + lam_DG3_16_3 <= 0
SOS2_lam_mid_DG3_16_4: - delta_DG3_16_3 - delta_DG3_16_4 + lam_DG3_16_4 <= 0
SOS2_lam_mid_DG3_17_1: - delta_DG3_17_0 - delta_DG3_17_1 + lam_DG3_17_1 <= 0
SOS2_lam_mid_DG3_17_2: - delta_DG3_17_1 - delta_DG3_17_2 + lam_DG3_17_2 <= 0
SOS2_lam_mid_DG3_17_3: - delta_DG3_17_2 - delta_DG3_17_3 + lam_DG3_17_3 <= 0
SOS2_lam_mid_DG3_17_4: - delta_DG3_17_3 - delta_DG3_17_4 + lam_DG3_17_4 <= 0
SOS2_lam_mid_DG3_1_1: - delta_DG3_1_0 - delta_DG3_1_1 + lam_DG3_1_1 <= 0
SOS2_lam_mid_DG3_1_2: - delta_DG3_1_1 - delta_DG3_1_2 + lam_DG3_1_2 <= 0
SOS2_lam_mid_DG3_1_3: - delta_DG3_1_2 - delta_DG3_1_3 + lam_DG3_1_3 <= 0
SOS2_lam_mid_DG3_1_4: - delta_DG3_1_3 - delta_DG3_1_4 + lam_DG3_1_4 <= 0
SOS2_lam_mid_DG3_2_1: - delta_DG3_2_0 - delta_DG3_2_1 + lam_DG3_2_1 <= 0
SOS2_lam_mid_DG3_2_2: - delta_DG3_2_1 - delta_DG3_2_2 + lam_DG3_2_2 <= 0
SOS2_lam_mid_DG3_2_3: - delta_DG3_2_2 - delta_DG3_2_3 + lam_DG3_2_3 <= 0
SOS2_lam_mid_DG3_2_4: - delta_DG3_2_3 - delta_DG3_2_4 + lam_DG3_2_4 <= 0
SOS2_lam_mid_DG3_3_1: - delta_DG3_3_0 - delta_DG3_3_1 + lam_DG3_3_1 <= 0
SOS2_lam_mid_DG3_3_2: - delta_DG3_3_1 - delta_DG3_3_2 + lam_DG3_3_2 <= 0
SOS2_lam_mid_DG3_3_3: - delta_DG3_3_2 - delta_DG3_3_3 + lam_DG3_3_3 <= 0
SOS2_lam_mid_DG3_3_4: - delta_DG3_3_3 - delta_DG3_3_4 + lam_DG3_3_4 <= 0
SOS2_lam_mid_DG3_4_1: - delta_DG3_4_0 - delta_DG3_4_1 + lam_DG3_4_1 <= 0
SOS2_lam_mid_DG3_4_2: - delta_DG3_4_1 - delta_DG3_4_2 + lam_DG3_4_2 <= 0
SOS2_lam_mid_DG3_4_3: - delta_DG3_4_2 - delta_DG3_4_3 + lam_DG3_4_3 <= 0
SOS2_lam_mid_DG3_4_4: - delta_DG3_4_3 - delta_DG3_4_4 + lam_DG3_4_4 <= 0
SOS2_lam_mid_DG3_5_1: - delta_DG3_5_0 - delta_DG3_5_1 + lam_DG3_5_1 <= 0
SOS2_lam_mid_DG3_5_2: - delta_DG3_5_1 - delta_DG3_5_2 + lam_DG3_5_2 <= 0
SOS2_lam_mid_DG3_5_3: - delta_DG3_5_2 - delta_DG3_5_3 + lam_DG3_5_3 <= 0
SOS2_lam_mid_DG3_5_4: - delta_DG3_5_3 - delta_DG3_5_4 + lam_DG3_5_4 <= 0
SOS2_lam_mid_DG3_6_1: - delta_DG3_6_0 - delta_DG3_6_1 + lam_DG3_6_1 <= 0
SOS2_lam_mid_DG3_6_2: - delta_DG3_6_1 - delta_DG3_6_2 + lam_DG3_6_2 <= 0
SOS2_lam_mid_DG3_6_3: - delta_DG3_6_2 - delta_DG3_6_3 + lam_DG3_6_3 <= 0
SOS2_lam_mid_DG3_6_4: - delta_DG3_6_3 - delta_DG3_6_4 + lam_DG3_6_4 <= 0
SOS2_lam_mid_DG3_7_1: - delta_DG3_7_0 - delta_DG3_7_1 + lam_DG3_7_1 <= 0
SOS2_lam_mid_DG3_7_2: - delta_DG3_7_1 - delta_DG3_7_2 + lam_DG3_7_2 <= 0
SOS2_lam_mid_DG3_7_3: - delta_DG3_7_2 - delta_DG3_7_3 + lam_DG3_7_3 <= 0
SOS2_lam_mid_DG3_7_4: - delta_DG3_7_3 - delta_DG3_7_4 + lam_DG3_7_4 <= 0
SOS2_lam_mid_DG3_8_1: - delta_DG3_8_0 - delta_DG3_8_1 + lam_DG3_8_1 <= 0
SOS2_lam_mid_DG3_8_2: - delta_DG3_8_1 - delta_DG3_8_2 + lam_DG3_8_2 <= 0
SOS2_lam_mid_DG3_8_3: - delta_DG3_8_2 - delta_DG3_8_3 + lam_DG3_8_3 <= 0
SOS2_lam_mid_DG3_8_4: - delta_DG3_8_3 - delta_DG3_8_4 + lam_DG3_8_4 <= 0
SOS2_lam_mid_DG3_9_1: - delta_DG3_9_0 - delta_DG3_9_1 + lam_DG3_9_1 <= 0
SOS2_lam_mid_DG3_9_2: - delta_DG3_9_1 - delta_DG3_9_2 + lam_DG3_9_2 <= 0
SOS2_lam_mid_DG3_9_3: - delta_DG3_9_2 - delta_DG3_9_3 + lam_DG3_9_3 <= 0
SOS2_lam_mid_DG3_9_4: - delta_DG3_9_3 - delta_DG3_9_4 + lam_DG3_9_4 <= 0
SOS2_seg_sum_DG1_0: delta_DG1_0_0 + delta_DG1_0_1 + delta_DG1_0_2
 + delta_DG1_0_3 + delta_DG1_0_4 - u_DG1_0 = 0
SOS2_seg_sum_DG1_1: delta_DG1_1_0 + delta_DG1_1_1 + delta_DG1_1_2
 + delta_DG1_1_3 + delta_DG1_1_4 - u_DG1_1 = 0
SOS2_seg_sum_DG1_10: delta_DG1_10_0 + delta_DG1_10_1 + delta_DG1_10_2
 + delta_DG1_10_3 + delta_DG1_10_4 - u_DG1_10 = 0
SOS2_seg_sum_DG1_11: delta_DG1_11_0 + delta_DG1_11_1 + delta_DG1_11_2
 + delta_DG1_11_3 + delta_DG1_11_4 - u_DG1_11 = 0
SOS2_seg_sum_DG1_12: delta_DG1_12_0 + delta_DG1_12_1 + delta_DG1_12_2
 + delta_DG1_12_3 + delta_DG1_12_4 - u_DG1_12 = 0
SOS2_seg_sum_DG1_13: delta_DG1_13_0 + delta_DG1_13_1 + delta_DG1_13_2
 + delta_DG1_13_3 + delta_DG1_13_4 - u_DG1_13 = 0
SOS2_seg_sum_DG1_14: delta_DG1_14_0 + delta_DG1_14_1 + delta_DG1_14_2
 + delta_DG1_14_3 + delta_DG1_14_4 - u_DG1_14 = 0
SOS2_seg_sum_DG1_15: delta_DG1_15_0 + delta_DG1_15_1 + delta_DG1_15_2
 + delta_DG1_15_3 + delta_DG1_15_4 - u_DG1_15 = 0
SOS2_seg_sum_DG1_16: delta_DG1_16_0 + delta_DG1_16_1 + delta_DG1_16_2
 + delta_DG1_16_3 + delta_DG1_16_4 - u_DG1_16 = 0
SOS2_seg_sum_DG1_17: delta_DG1_17_0 + delta_DG1_17_1 + delta_DG1_17_2
 + delta_DG1_17_3 + delta_DG1_17_4 - u_DG1_17 = 0
SOS2_seg_sum_DG1_2: delta_DG1_2_0 + delta_DG1_2_1 + delta_DG1_2_2
 + delta_DG1_2_3 + delta_DG1_2_4 - u_DG1_2 = 0
SOS2_seg_sum_DG1_3: delta_DG1_3_0 + delta_DG1_3_1 + delta_DG1_3_2
 + delta_DG1_3_3 + delta_DG1_3_4 - u_DG1_3 = 0
SOS2_seg_sum_DG1_4: delta_DG1_4_0 + delta_DG1_4_1 + delta_DG1_4_2
 + delta_DG1_4_3 + delta_DG1_4_4 - u_DG1_4 = 0
SOS2_seg_sum_DG1_5: delta_DG1_5_0 + delta_DG1_5_1 + delta_DG1_5_2
 + delta_DG1_5_3 + delta_DG1_5_4 - u_DG1_5 = 0
SOS2_seg_sum_DG1_6: delta_DG1_6_0 + delta_DG1_6_1 + delta_DG1_6_2
 + delta_DG1_6_3 + delta_DG1_6_4 - u_DG1_6 = 0
SOS2_seg_sum_DG1_7: delta_DG1_7_0 + delta_DG1_7_1 + delta_DG1_7_2
 + delta_DG1_7_3 + delta_DG1_7_4 - u_DG1_7 = 0
SOS2_seg_sum_DG1_8: delta_DG1_8_0 + delta_DG1_8_1 + delta_DG1_8_2
 + delta_DG1_8_3 + delta_DG1_8_4 - u_DG1_8 = 0
SOS2_seg_sum_DG1_9: delta_DG1_9_0 + delta_DG1_9_1 + delta_DG1_9_2
 + delta_DG1_9_3 + delta_DG1_9_4 - u_DG1_9 = 0
SOS2_seg_sum_DG2_0: delta_DG2_0_0 + delta_DG2_0_1 + delta_DG2_0_2
 + delta_DG2_0_3 + delta_DG2_0_4 - u_DG2_0 = 0
SOS2_seg_sum_DG2_1: delta_DG2_1_0 + delta_DG2_1_1 + delta_DG2_1_2
 + delta_DG2_1_3 + delta_DG2_1_4 - u_DG2_1 = 0
SOS2_seg_sum_DG2_10: delta_DG2_10_0 + delta_DG2_10_1 + delta_DG2_10_2
 + delta_DG2_10_3 + delta_DG2_10_4 - u_DG2_10 = 0
SOS2_seg_sum_DG2_11: delta_DG2_11_0 + delta_DG2_11_1 + delta_DG2_11_2
 + delta_DG2_11_3 + delta_DG2_11_4 - u_DG2_11 = 0
SOS2_seg_sum_DG2_12: delta_DG2_12_0 + delta_DG2_12_1 + delta_DG2_12_2
 + delta_DG2_12_3 + delta_DG2_12_4 - u_DG2_12 = 0
SOS2_seg_sum_DG2_13: delta_DG2_13_0 + delta_DG2_13_1 + delta_DG2_13_2
 + delta_DG2_13_3 + delta_DG2_13_4 - u_DG2_13 = 0
SOS2_seg_sum_DG2_14: delta_DG2_14_0 + delta_DG2_14_1 + delta_DG2_14_2
 + delta_DG2_14_3 + delta_DG2_14_4 - u_DG2_14 = 0
SOS2_seg_sum_DG2_15: delta_DG2_15_0 + delta_DG2_15_1 + delta_DG2_15_2
 + delta_DG2_15_3 + delta_DG2_15_4 - u_DG2_15 = 0
SOS2_seg_sum_DG2_16: delta_DG2_16_0 + delta_DG2_16_1 + delta_DG2_16_2
 + delta_DG2_16_3 + delta_DG2_16_4 - u_DG2_16 = 0
SOS2_seg_sum_DG2_17: delta_DG2_17_0 + delta_DG2_17_1 + delta_DG2_17_2
 + delta_DG2_17_3 + delta_DG2_17_4 - u_DG2_17 = 0
SOS2_seg_sum_DG2_2: delta_DG2_2_0 + delta_DG2_2_1 + delta_DG2_2_2
 + delta_DG2_2_3 + delta_DG2_2_4 - u_DG2_2 = 0
SOS2_seg_sum_DG2_3: delta_DG2_3_0 + delta_DG2_3_1 + delta_DG2_3_2
 + delta_DG2_3_3 + delta_DG2_3_4 - u_DG2_3 = 0
SOS2_seg_sum_DG2_4: delta_DG2_4_0 + delta_DG2_4_1 + delta_DG2_4_2
 + delta_DG2_4_3 + delta_DG2_4_4 - u_DG2_4 = 0
SOS2_seg_sum_DG2_5: delta_DG2_5_0 + delta_DG2_5_1 + delta_DG2_5_2
 + delta_DG2_5_3 + delta_DG2_5_4 - u_DG2_5 = 0
SOS2_seg_sum_DG2_6: delta_DG2_6_0 + delta_DG2_6_1 + delta_DG2_6_2
 + delta_DG2_6_3 + delta_DG2_6_4 - u_DG2_6 = 0
SOS2_seg_sum_DG2_7: delta_DG2_7_0 + delta_DG2_7_1 + delta_DG2_7_2
 + delta_DG2_7_3 + delta_DG2_7_4 - u_DG2_7 = 0
SOS2_seg_sum_DG2_8: delta_DG2_8_0 + delta_DG2_8_1 + delta_DG2_8_2
 + delta_DG2_8_3 + delta_DG2_8_4 - u_DG2_8 = 0
SOS2_seg_sum_DG2_9: delta_DG2_9_0 + delta_DG2_9_1 + delta_DG2_9_2
 + delta_DG2_9_3 + delta_DG2_9_4 - u_DG2_9 = 0
SOS2_seg_sum_DG3_0: delta_DG3_0_0 + delta_DG3_0_1 + delta_DG3_0_2
 + delta_DG3_0_3 + delta_DG3_0_4 - u_DG3_0 = 0
SOS2_seg_sum_DG3_1: delta_DG3_1_0 + delta_DG3_1_1 + delta_DG3_1_2
 + delta_DG3_1_3 + delta_DG3_1_4 - u_DG3_1 = 0
SOS2_seg_sum_DG3_10: delta_DG3_10_0 + delta_DG3_10_1 + delta_DG3_10_2
 + delta_DG3_10_3 + delta_DG3_10_4 - u_DG3_10 = 0
SOS2_seg_sum_DG3_11: delta_DG3_11_0 + delta_DG3_11_1 + delta_DG3_11_2
 + delta_DG3_11_3 + delta_DG3_11_4 - u_DG3_11 = 0
SOS2_seg_sum_DG3_12: delta_DG3_12_0 + delta_DG3_12_1 + delta_DG3_12_2
 + delta_DG3_12_3 + delta_DG3_12_4 - u_DG3_12 = 0
SOS2_seg_sum_DG3_13: delta_DG3_13_0 + delta_DG3_13_1 + delta_DG3_13_2
 + delta_DG3_13_3 + delta_DG3_13_4 - u_DG3_13 = 0
SOS2_seg_sum_DG3_14: delta_DG3_14_0 + delta_DG3_14_1 + delta_DG3_14_2
 + delta_DG3_14_3 + delta_DG3_14_4 - u_DG3_14 = 0
SOS2_seg_sum_DG3_15: delta_DG3_15_0 + delta_DG3_15_1 + delta_DG3_15_2
 + delta_DG3_15_3 + delta_DG3_15_4 - u_DG3_15 = 0
SOS2_seg_sum_DG3_16: delta_DG3_16_0 + delta_DG3_16_1 + delta_DG3_16_2
 + delta_DG3_16_3 + delta_DG3_16_4 - u_DG3_16 = 0
SOS2_seg_sum_DG3_17: delta_DG3_17_0 + delta_DG3_17_1 + delta_DG3_17_2
 + delta_DG3_17_3 + delta_DG3_17_4 - u_DG3_17 = 0
SOS2_seg_sum_DG3_2: delta_DG3_2_0 + delta_DG3_2_1 + delta_DG3_2_2
 + delta_DG3_2_3 + delta_DG3_2_4 - u_DG3_2 = 0
SOS2_seg_sum_DG3_3: delta_DG3_3_0 + delta_DG3_3_1 + delta_DG3_3_2
 + delta_DG3_3_3 + delta_DG3_3_4 - u_DG3_3 = 0
SOS2_seg_sum_DG3_4: delta_DG3_4_0 + delta_DG3_4_1 + delta_DG3_4_2
 + delta_DG3_4_3 + delta_DG3_4_4 - u_DG3_4 = 0
SOS2_seg_sum_DG3_5: delta_DG3_5_0 + delta_DG3_5_1 + delta_DG3_5_2
 + delta_DG3_5_3 + delta_DG3_5_4 - u_DG3_5 = 0
SOS2_seg_sum_DG3_6: delta_DG3_6_0 + delta_DG3_6_1 + delta_DG3_6_2
 + delta_DG3_6_3 + delta_DG3_6_4 - u_DG3_6 = 0
SOS2_seg_sum_DG3_7: delta_DG3_7_0 + delta_DG3_7_1 + delta_DG3_7_2
 + delta_DG3_7_3 + delta_DG3_7_4 - u_DG3_7 = 0
SOS2_seg_sum_DG3_8: delta_DG3_8_0 + delta_DG3_8_1 + delta_DG3_8_2
 + delta_DG3_8_3 + delta_DG3_8_4 - u_DG3_8 = 0
SOS2_seg_sum_DG3_9: delta_DG3_9_0 + delta_DG3_9_1 + delta_DG3_9_2
 + delta_DG3_9_3 + delta_DG3_9_4 - u_DG3_9 = 0
StartStop_DG1_0: - u_DG1_0 + y_DG1_0 - z_DG1_0 = 0
StartStop_DG1_1: u_DG1_0 - u_DG1_1 + y_DG1_1 - z_DG1_1 = 0
StartStop_DG1_10: - u_DG1_10 + u_DG1_9 + y_DG1_10 - z_DG1_10 = 0
StartStop_DG1_11: u_DG1_10 - u_DG1_11 + y_DG1_11 - z_DG1_11 = 0
StartStop_DG1_12: u_DG1_11 - u_DG1_12 + y_DG1_12 - z_DG1_12 = 0
StartStop_DG1_13: u_DG1_12 - u_DG1_13 + y_DG1_13 - z_DG1_13 = 0
StartStop_DG1_14: u_DG1_13 - u_DG1_14 + y_DG1_14 - z_DG1_14 = 0
StartStop_DG1_15: u_DG1_14 - u_DG1_15 + y_DG1_15 - z_DG1_15 = 0
StartStop_DG1_16: u_DG1_15 - u_DG1_16 + y_DG1_16 - z_DG1_16 = 0
StartStop_DG1_17: u_DG1_16 - u_DG1_17 + y_DG1_17 - z_DG1_17 = 0
StartStop_DG1_2: u_DG1_1 - u_DG1_2 + y_DG1_2 - z_DG1_2 = 0
StartStop_DG1_3: u_DG1_2 - u_DG1_3 + y_DG1_3 - z_DG1_3 = 0
StartStop_DG1_4: u_DG1_3 - u_DG1_4 + y_DG1_4 - z_DG1_4 = 0
StartStop_DG1_5: u_DG1_4 - u_DG1_5 + y_DG1_5 - z_DG1_5 = 0
StartStop_DG1_6: u_DG1_5 - u_DG1_6 + y_DG1_6 - z_DG1_6 = 0
StartStop_DG1_7: u_DG1_6 - u_DG1_7 + y_DG1_7 - z_DG1_7 = 0
StartStop_DG1_8: u_DG1_7 - u_DG1_8 + y_DG1_8 - z_DG1_8 = 0
StartStop_DG1_9: u_DG1_8 - u_DG1_9 + y_DG1_9 - z_DG1_9 = 0
StartStop_DG2_0: - u_DG2_0 + y_DG2_0 - z_DG2_0 = 0
StartStop_DG2_1: u_DG2_0 - u_DG2_1 + y_DG2_1 - z_DG2_1 = 0
StartStop_DG2_10: - u_DG2_10 + u_DG2_9 + y_DG2_10 - z_DG2_10 = 0
StartStop_DG2_11: u_DG2_10 - u_DG2_11 + y_DG2_11 - z_DG2_11 = 0
StartStop_DG2_12: u_DG2_11 - u_DG2_12 + y_DG2_12 - z_DG2_12 = 0
StartStop_DG2_13: u_DG2_12 - u_DG2_13 + y_DG2_13 - z_DG2_13 = 0
StartStop_DG2_14: u_DG2_13 - u_DG2_14 + y_DG2_14 - z_DG2_14 = 0
StartStop_DG2_15: u_DG2_14 - u_DG2_15 + y_DG2_15 - z_DG2_15 = 0
StartStop_DG2_16: u_DG2_15 - u_DG2_16 + y_DG2_16 - z_DG2_16 = 0
StartStop_DG2_17: u_DG2_16 - u_DG2_17 + y_DG2_17 - z_DG2_17 = 0
StartStop_DG2_2: u_DG2_1 - u_DG2_2 + y_DG2_2 - z_DG2_2 = 0
StartStop_DG2_3: u_DG2_2 - u_DG2_3 + y_DG2_3 - z_DG2_3 = 0
StartStop_DG2_4: u_DG2_3 - u_DG2_4 + y_DG2_4 - z_DG2_4 = 0
StartStop_DG2_5: u_DG2_4 - u_DG2_5 + y_DG2_5 - z_DG2_5 = 0
StartStop_DG2_6: u_DG2_5 - u_DG2_6 + y_DG2_6 - z_DG2_6 = 0
StartStop_DG2_7: u_DG2_6 - u_DG2_7 + y_DG2_7 - z_DG2_7 = 0
StartStop_DG2_8: u_DG2_7 - u_DG2_8 + y_DG2_8 - z_DG2_8 = 0
StartStop_DG2_9: u_DG2_8 - u_DG2_9 + y_DG2_9 - z_DG2_9 = 0
StartStop_DG3_0: - u_DG3_0 + y_DG3_0 - z_DG3_0 = 0
StartStop_DG3_1: u_DG3_0 - u_DG3_1 + y_DG3_1 - z_DG3_1 = 0
StartStop_DG3_10: - u_DG3_10 + u_DG3_9 + y_DG3_10 - z_DG3_10 = 0
StartStop_DG3_11: u_DG3_10 - u_DG3_11 + y_DG3_11 - z_DG3_11 = 0
StartStop_DG3_12: u_DG3_11 - u_DG3_12 + y_DG3_12 - z_DG3_12 = 0
StartStop_DG3_13: u_DG3_12 - u_DG3_13 + y_DG3_13 - z_DG3_13 = 0
StartStop_DG3_14: u_DG3_13 - u_DG3_14 + y_DG3_14 - z_DG3_14 = 0
StartStop_DG3_15: u_DG3_14 - u_DG3_15 + y_DG3_15 - z_DG3_15 = 0
StartStop_DG3_16: u_DG3_15 - u_DG3_16 + y_DG3_16 - z_DG3_16 = 0
StartStop_DG3_17: u_DG3_16 - u_DG3_17 + y_DG3_17 - z_DG3_17 = 0
StartStop_DG3_2: u_DG3_1 - u_DG3_2 + y_DG3_2 - z_DG3_2 = 0
StartStop_DG3_3: u_DG3_2 - u_DG3_3 + y_DG3_3 - z_DG3_3 = 0
StartStop_DG3_4: u_DG3_3 - u_DG3_4 + y_DG3_4 - z_DG3_4 = 0
StartStop_DG3_5: u_DG3_4 - u_DG3_5 + y_DG3_5 - z_DG3_5 = 0
StartStop_DG3_6: u_DG3_5 - u_DG3_6 + y_DG3_6 - z_DG3_6 = 0
StartStop_DG3_7: u_DG3_6 - u_DG3_7 + y_DG3_7 - z_DG3_7 = 0
StartStop_DG3_8: u_DG3_7 - u_DG3_8 + y_DG3_8 - z_DG3_8 = 0
StartStop_DG3_9: u_DG3_8 - u_DG3_9 + y_DG3_9 - z_DG3_9 = 0
Bounds
 P_c_0 <= 15
 P_c_1 <= 15
 P_c_10 <= 15
 P_c_11 <= 15
 P_c_12 <= 15
 P_c_13 <= 15
 P_c_14 <= 15
 P_c_15 <= 15
 P_c_16 <= 15
 P_c_17 <= 15
 P_c_2 <= 15
 P_c_3 <= 15
 P_c_4 <= 15
 P_c_5 <= 15
 P_c_6 <= 15
 P_c_7 <= 15
 P_c_8 <= 15
 P_c_9 <= 15
 P_dc_0 <= 15
 P_dc_1 <= 15
 P_dc_10 <= 15
 P_dc_11 <= 15
 P_dc_12 <= 15
 P_dc_13 <= 15
 P_dc_14 <= 15
 P_dc_15 <= 15
 P_dc_16 <= 15
 P_dc_17 <= 15
 P_dc_2 <= 15
 P_dc_3 <= 15
 P_dc_4 <= 15
 P_dc_5 <= 15
 P_dc_6 <= 15
 P_dc_7 <= 15
 P_dc_8 <= 15
 P_dc_9 <= 15
 0.3 <= SOC_0 <= 0.9
 0.3 <= SOC_1 <= 0.9
 0.3 <= SOC_10 <= 0.9
 0.3 <= SOC_11 <= 0.9
 0.3 <= SOC_12 <= 0.9
 0.3 <= SOC_13 <= 0.9
 0.3 <= SOC_14 <= 0.9
 0.3 <= SOC_15 <= 0.9
 0.3 <= SOC_16 <= 0.9
 0.3 <= SOC_17 <= 0.9
 0.3 <= SOC_2 <= 0.9
 0.3 <= SOC_3 <= 0.9
 0.3 <= SOC_4 <= 0.9
 0.3 <= SOC_5 <= 0.9
 0.3 <= SOC_6 <= 0.9
 0.3 <= SOC_7 <= 0.9
 0.3 <= SOC_8 <= 0.9
 0.3 <= SOC_9 <= 0.9
 lam_DG1_0_0 <= 1
 lam_DG1_0_1 <= 1
 lam_DG1_0_2 <= 1
 lam_DG1_0_3 <= 1
 lam_DG1_0_4 <= 1
 lam_DG1_0_5 <= 1
 lam_DG1_10_0 <= 1
 lam_DG1_10_1 <= 1
 lam_DG1_10_2 <= 1
 lam_DG1_10_3 <= 1
 lam_DG1_10_4 <= 1
 lam_DG1_10_5 <= 1
 lam_DG1_11_0 <= 1
 lam_DG1_11_1 <= 1
 lam_DG1_11_2 <= 1
 lam_DG1_11_3 <= 1
 lam_DG1_11_4 <= 1
 lam_DG1_11_5 <= 1
 lam_DG1_12_0 <= 1
 lam_DG1_12_1 <= 1
 lam_DG1_12_2 <= 1
 lam_DG1_12_3 <= 1
 lam_DG1_12_4 <= 1
 lam_DG1_12_5 <= 1
 lam_DG1_13_0 <= 1
 lam_DG1_13_1 <= 1
 lam_DG1_13_2 <= 1
 lam_DG1_13_3 <= 1
 lam_DG1_13_4 <= 1
 lam_DG1_13_5 <= 1
 lam_DG1_14_0 <= 1
 lam_DG1_14_1 <= 1
 lam_DG1_14_2 <= 1
 lam_DG1_14_3 <= 1
 lam_DG1_14_4 <= 1
 lam_DG1_14_5 <= 1
 lam_DG1_15_0 <= 1
 lam_DG1_15_1 <= 1
 lam_DG1_15_2 <= 1
 lam_DG1_15_3 <= 1
 lam_DG1_15_4 <= 1
 lam_DG1_15_5 <= 1
 lam_DG1_16_0 <= 1
 lam_DG1_16_1 <= 1
 lam_DG1_16_2 <= 1
 lam_DG1_16_3 <= 1
 lam_DG1_16_4 <= 1
 lam_DG1_16_5 <= 1
 lam_DG1_17_0 <= 1
 lam_DG1_17_1 <= 1
 lam_DG1_17_2 <= 1
 lam_DG1_17_3 <= 1
 lam_DG1_17_4 <= 1
 lam_DG1_17_5 <= 1
 lam_DG1_1_0 <= 1
 lam_DG1_1_1 <= 1
 lam_DG1_1_2 <= 1
 lam_DG1_1_3 <= 1
 lam_DG1_1_4 <= 1
 lam_DG1_1_5 <= 1
 lam_DG1_2_0 <= 1
 lam_DG1_2_1 <= 1
 lam_DG1_2_2 <= 1
 lam_DG1_2_3 <= 1
 lam_DG1_2_4 <= 1
 lam_DG1_2_5 <= 1
 lam_DG1_3_0 <= 1
 lam_DG1_3_1 <= 1
 lam_DG1_3_2 <= 1
 lam_DG1_3_3 <= 1
 lam_DG1_3_4 <= 1
 lam_DG1_3_5 <= 1
 lam_DG1_4_0 <= 1
 lam_DG1_4_1 <= 1
 lam_DG1_4_2 <= 1
 lam_DG1_4_3 <= 1
 lam_DG1_4_4 <= 1
 lam_DG1_4_5 <= 1
 lam_DG1_5_0 <= 1
 lam_DG1_5_1 <= 1
 lam_DG1_5_2 <= 1
 lam_DG1_5_3 <= 1
 lam_DG1_5_4 <= 1
 lam_DG1_5_5 <= 1
 lam_DG1_6_0 <= 1
 lam_DG1_6_1 <= 1
 lam_DG1_6_2 <= 1
 lam_DG1_6_3 <= 1
 lam_DG1_6_4 <= 1
 lam_DG1_6_5 <= 1
 lam_DG1_7_0 <= 1
 lam_DG1_7_1 <= 1
 lam_DG1_7_2 <= 1
 lam_DG1_7_3 <= 1
 lam_DG1_7_4 <= 1
 lam_DG1_7_5 <= 1
 lam_DG1_8_0 <= 1
 lam_DG1_8_1 <= 1
 lam_DG1_8_2 <= 1
 lam_DG1_8_3 <= 1
 lam_DG1_8_4 <= 1
 lam_DG1_8_5 <= 1
 lam_DG1_9_0 <= 1
 lam_DG1_9_1 <= 1
 lam_DG1_9_2 <= 1
 lam_DG1_9_3 <= 1
 lam_DG1_9_4 <= 1
 lam_DG1_9_5 <= 1
 lam_DG2_0_0 <= 1
 lam_DG2_0_1 <= 1
 lam_DG2_0_2 <= 1
 lam_DG2_0_3 <= 1
 lam_DG2_0_4 <= 1
 lam_DG2_0_5 <= 1
 lam_DG2_10_0 <= 1
 lam_DG2_10_1 <= 1
 lam_DG2_10_2 <= 1
 lam_DG2_10_3 <= 1
 lam_DG2_10_4 <= 1
 lam_DG2_10_5 <= 1
 lam_DG2_11_0 <= 1
 lam_DG2_11_1 <= 1
 lam_DG2_11_2 <= 1
 lam_DG2_11_3 <= 1
 lam_DG2_11_4 <= 1
 lam_DG2_11_5 <= 1
 lam_DG2_12_0 <= 1
 lam_DG2_12_1 <= 1
 lam_DG2_12_2 <= 1
 lam_DG2_12_3 <= 1
 lam_DG2_12_4 <= 1
 lam_DG2_12_5 <= 1
 lam_DG2_13_0 <= 1
 lam_DG2_13_1 <= 1
 lam_DG2_13_2 <= 1
 lam_DG2_13_3 <= 1
 lam_DG2_13_4 <= 1
 lam_DG2_13_5 <= 1
 lam_DG2_14_0 <= 1
 lam_DG2_14_1 <= 1
 lam_DG2_14_2 <= 1
 lam_DG2_14_3 <= 1
 lam_DG2_14_4 <= 1
 lam_DG2_14_5 <= 1
 lam_DG2_15_0 <= 1
 lam_DG2_15_1 <= 1
 lam_DG2_15_2 <= 1
 lam_DG2_15_3 <= 1
 lam_DG2_15_4 <= 1
 lam_DG2_15_5 <= 1
 lam_DG2_16_0 <= 1
 lam_DG2_16_1 <= 1
 lam_DG2_16_2 <= 1
 lam_DG2_16_3 <= 1
 lam_DG2_16_4 <= 1
 lam_DG2_16_5 <= 1
 lam_DG2_17_0 <= 1
 lam_DG2_17_1 <= 1
 lam_DG2_17_2 <= 1
 lam_DG2_17_3 <= 1
 lam_DG2_17_4 <= 1
 lam_DG2_17_5 <= 1
 lam_DG2_1_0 <= 1
 lam_DG2_1_1 <= 1
 lam_DG2_1_2 <= 1
 lam_DG2_1_3 <= 1
 lam_DG2_1_4 <= 1
 lam_DG2_1_5 <= 1
 lam_DG2_2_0 <= 1
 lam_DG2_2_1 <= 1
 lam_DG2_2_2 <= 1
 lam_DG2_2_3 <= 1
 lam_DG2_2_4 <= 1
 lam_DG2_2_5 <= 1
 lam_DG2_3_0 <= 1
 lam_DG2_3_1 <= 1
 lam_DG2_3_2 <= 1
 lam_DG2_3_3 <= 1
 lam_DG2_3_4 <= 1
 lam_DG2_3_5 <= 1
 lam_DG2_4_0 <= 1
 lam_DG2_4_1 <= 1
 lam_DG2_4_2 <= 1
 lam_DG2_4_3 <= 1
 lam_DG2_4_4 <= 1
 lam_DG2_4_5 <= 1
 lam_DG2_5_0 <= 1
 lam_DG2_5_1 <= 1
 lam_DG2_5_2 <= 1
 lam_DG2_5_3 <= 1
 lam_DG2_5_4 <= 1
 lam_DG2_5_5 <= 1
 lam_DG2_6_0 <= 1
 lam_DG2_6_1 <= 1
 lam_DG2_6_2 <= 1
 lam_DG2_6_3 <= 1
 lam_DG2_6_4 <= 1
 lam_DG2_6_5 <= 1
 lam_DG2_7_0 <= 1
 lam_DG2_7_1 <= 1
 lam_DG2_7_2 <= 1
 lam_DG2_7_3 <= 1
 lam_DG2_7_4 <= 1
 lam_DG2_7_5 <= 1
 lam_DG2_8_0 <= 1
 lam_DG2_8_1 <= 1
 lam_DG2_8_2 <= 1
 lam_DG2_8_3 <= 1
 lam_DG2_8_4 <= 1
 lam_DG2_8_5 <= 1
 lam_DG2_9_0 <= 1
 lam_DG2_9_1 <= 1
 lam_DG2_9_2 <= 1
 lam_DG2_9_3 <= 1
 lam_DG2_9_4 <= 1
 lam_DG2_9_5 <= 1
 lam_DG3_0_0 <= 1
 lam_DG3_0_1 <= 1
 lam_DG3_0_2 <= 1
 lam_DG3_0_3 <= 1
 lam_DG3_0_4 <= 1
 lam_DG3_0_5 <= 1
 lam_DG3_10_0 <= 1
 lam_DG3_10_1 <= 1
 lam_DG3_10_2 <= 1
 lam_DG3_10_3 <= 1
 lam_DG3_10_4 <= 1
 lam_DG3_10_5 <= 1
 lam_DG3_11_0 <= 1
 lam_DG3_11_1 <= 1
 lam_DG3_11_2 <= 1
 lam_DG3_11_3 <= 1
 lam_DG3_11_4 <= 1
 lam_DG3_11_5 <= 1
 lam_DG3_12_0 <= 1
 lam_DG3_12_1 <= 1
 lam_DG3_12_2 <= 1
 lam_DG3_12_3 <= 1
 lam_DG3_12_4 <= 1
 lam_DG3_12_5 <= 1
 lam_DG3_13_0 <= 1
 lam_DG3_13_1 <= 1
 lam_DG3_13_2 <= 1
 lam_DG3_13_3 <= 1
 lam_DG3_13_4 <= 1
 lam_DG3_13_5 <= 1
 lam_DG3_14_0 <= 1
 lam_DG3_14_1 <= 1
 lam_DG3_14_2 <= 1
 lam_DG3_14_3 <= 1
 lam_DG3_14_4 <= 1
 lam_DG3_14_5 <= 1
 lam_DG3_15_0 <= 1
 lam_DG3_15_1 <= 1
 lam_DG3_15_2 <= 1
 lam_DG3_15_3 <= 1
 lam_DG3_15_4 <= 1
 lam_DG3_15_5 <= 1
 lam_DG3_16_0 <= 1
 lam_DG3_16_1 <= 1
 lam_DG3_16_2 <= 1
 lam_DG3_16_3 <= 1
 lam_DG3_16_4 <= 1
 lam_DG3_16_5 <= 1
 lam_DG3_17_0 <= 1
 lam_DG3_17_1 <= 1
 lam_DG3_17_2 <= 1
 lam_DG3_17_3 <= 1
 lam_DG3_17_4 <= 1
 lam_DG3_17_5 <= 1
 lam_DG3_1_0 <= 1
 lam_DG3_1_1 <= 1
 lam_DG3_1_2 <= 1
 lam_DG3_1_3 <= 1
 lam_DG3_1_4 <= 1
 lam_DG3_1_5 <= 1
 lam_DG3_2_0 <= 1
 lam_DG3_2_1 <= 1
 lam_DG3_2_2 <= 1
 lam_DG3_2_3 <= 1
 lam_DG3_2_4 <= 1
 lam_DG3_2_5 <= 1
 lam_DG3_3_0 <= 1
 lam_DG3_3_1 <= 1
 lam_DG3_3_2 <= 1
 lam_DG3_3_3 <= 1
 lam_DG3_3_4 <= 1
 lam_DG3_3_5 <= 1
 lam_DG3_4_0 <= 1
 lam_DG3_4_1 <= 1
 lam_DG3_4_2 <= 1
 lam_DG3_4_3 <= 1
 lam_DG3_4_4 <= 1
 lam_DG3_4_5 <= 1
 lam_DG3_5_0 <= 1
 lam_DG3_5_1 <= 1
 lam_DG3_5_2 <= 1
 lam_DG3_5_3 <= 1
 lam_DG3_5_4 <= 1
 lam_DG3_5_5 <= 1
 lam_DG3_6_0 <= 1
 lam_DG3_6_1 <= 1
 lam_DG3_6_2 <= 1
 lam_DG3_6_3 <= 1
 lam_DG3_6_4 <= 1
 lam_DG3_6_5 <= 1
 lam_DG3_7_0 <= 1
 lam_DG3_7_1 <= 1
 lam_DG3_7_2 <= 1
 lam_DG3_7_3 <= 1
 lam_DG3_7_4 <= 1
 lam_DG3_7_5 <= 1
 lam_DG3_8_0 <= 1
 lam_DG3_8_1 <= 1
 lam_DG3_8_2 <= 1
 lam_DG3_8_3 <= 1
 lam_DG3_8_4 <= 1
 lam_DG3_8_5 <= 1
 lam_DG3_9_0 <= 1
 lam_DG3_9_1 <= 1
 lam_DG3_9_2 <= 1
 lam_DG3_9_3 <= 1
 lam_DG3_9_4 <= 1
 lam_DG3_9_5 <= 1
Binaries
delta_DG1_0_0
delta_DG1_0_1
delta_DG1_0_2
delta_DG1_0_3
delta_DG1_0_4
delta_DG1_10_0
delta_DG1_10_1
delta_DG1_10_2
delta_DG1_10_3
delta_DG1_10_4
delta_DG1_11_0
delta_DG1_11_1
delta_DG1_11_2
delta_DG1_11_3
delta_DG1_11_4
delta_DG1_12_0
delta_DG1_12_1
delta_DG1_12_2
delta_DG1_12_3
delta_DG1_12_4
delta_DG1_13_0
delta_DG1_13_1
delta_DG1_13_2
delta_DG1_13_3
delta_DG1_13_4
delta_DG1_14_0
delta_DG1_14_1
delta_DG1_14_2
delta_DG1_14_3
delta_DG1_14_4
delta_DG1_15_0
delta_DG1_15_1
delta_DG1_15_2
delta_DG1_15_3
delta_DG1_15_4
delta_DG1_16_0
delta_DG1_16_1
delta_DG1_16_2
delta_DG1_16_3
delta_DG1_16_4
delta_DG1_17_0
delta_DG1_17_1
delta_DG1_17_2
delta_DG1_17_3
delta_DG1_17_4
delta_DG1_1_0
delta_DG1_1_1
delta_DG1_1_2
delta_DG1_1_3
delta_DG1_1_4
delta_DG1_2_0
delta_DG1_2_1
delta_DG1_2_2
delta_DG1_2_3
delta_DG1_2_4
delta_DG1_3_0
delta_DG1_3_1
delta_DG1_3_2
delta_DG1_3_3
delta_DG1_3_4
delta_DG1_4_0
delta_DG1_4_1
delta_DG1_4_2
delta_DG1_4_3
delta_DG1_4_4
delta_DG1_5_0
delta_DG1_5_1
delta_DG1_5_2
delta_DG1_5_3
delta_DG1_5_4
delta_DG1_6_0
delta_DG1_6_1
delta_DG1_6_2
delta_DG1_6_3
delta_DG1_6_4
delta_DG1_7_0
delta_DG1_7_1
delta_DG1_7_2
delta_DG1_7_3
delta_DG1_7_4
delta_DG1_8_0
delta_DG1_8_1
delta_DG1_8_2
delta_DG1_8_3
delta_DG1_8_4
delta_DG1_9_0
delta_DG1_9_1
delta_DG1_9_2
delta_DG1_9_3
delta_DG1_9_4
delta_DG2_0_0
delta_DG2_0_1
delta_DG2_0_2
delta_DG2_0_3
delta_DG2_0_4
delta_DG2_10_0
delta_DG2_10_1
delta_DG2_10_2
delta_DG2_10_3
delta_DG2_10_4
delta_DG2_11_0
delta_DG2_11_1
delta_DG2_11_2
delta_DG2_11_3
delta_DG2_11_4
delta_DG2_12_0
delta_DG2_12_1
delta_DG2_12_2
delta_DG2_12_3
delta_DG2_12_4
delta_DG2_13_0
delta_DG2_13_1
delta_DG2_13_2
delta_DG2_13_3
delta_DG2_13_4
delta_DG2_14_0
delta_DG2_14_1
delta_DG2_14_2
delta_DG2_14_3
delta_DG2_14_4
delta_DG2_15_0
delta_DG2_15_1
delta_DG2_15_2
delta_DG2_15_3
delta_DG2_15_4
delta_DG2_16_0
delta_DG2_16_1
delta_DG2_16_2
delta_DG2_16_3
delta_DG2_16_4
delta_DG2_17_0
delta_DG2_17_1
delta_DG2_17_2
delta_DG2_17_3
delta_DG2_17_4
delta_DG2_1_0
delta_DG2_1_1
delta_DG2_1_2
delta_DG2_1_3
delta_DG2_1_4
delta_DG2_2_0
delta_DG2_2_1
delta_DG2_2_2
delta_DG2_2_3
delta_DG2_2_4
delta_DG2_3_0
delta_DG2_3_1
delta_DG2_3_2
delta_DG2_3_3
delta_DG2_3_4
delta_DG2_4_0
delta_DG2_4_1
delta_DG2_4_2
delta_DG2_4_3
delta_DG2_4_4
delta_DG2_5_0
delta_DG2_5_1
delta_DG2_5_2
delta_DG2_5_3
delta_DG2_5_4
delta_DG2_6_0
delta_DG2_6_1
delta_DG2_6_2
delta_DG2_6_3
delta_DG2_6_4
delta_DG2_7_0
delta_DG2_7_1
delta_DG2_7_2
delta_DG2_7_3
delta_DG2_7_4
delta_DG2_8_0
delta_DG2_8_1
delta_DG2_8_2
delta_DG2_8_3
delta_DG2_8_4
delta_DG2_9_0
delta_DG2_9_1
delta_DG2_9_2
delta_DG2_9_3
delta_DG2_9_4
delta_DG3_0_0
delta_DG3_0_1
delta_DG3_0_2
delta_DG3_0_3
delta_DG3_0_4
delta_DG3_10_0
delta_DG3_10_1
delta_DG3_10_2
delta_DG3_10_3
delta_DG3_10_4
delta_DG3_11_0
delta_DG3_11_1
delta_DG3_11_2
delta_DG3_11_3
delta_DG3_11_4
delta_DG3_12_0
delta_DG3_12_1
delta_DG3_12_2
delta_DG3_12_3
delta_DG3_12_4
delta_DG3_13_0
delta_DG3_13_1
delta_DG3_13_2
delta_DG3_13_3
delta_DG3_13_4
delta_DG3_14_0
delta_DG3_14_1
delta_DG3_14_2
delta_DG3_14_3
delta_DG3_14_4
delta_DG3_15_0
delta_DG3_15_1
delta_DG3_15_2
delta_DG3_15_3
delta_DG3_15_4
delta_DG3_16_0
delta_DG3_16_1
delta_DG3_16_2
delta_DG3_16_3
delta_DG3_16_4
delta_DG3_17_0
delta_DG3_17_1
delta_DG3_17_2
delta_DG3_17_3
delta_DG3_17_4
delta_DG3_1_0
delta_DG3_1_1
delta_DG3_1_2
delta_DG3_1_3
delta_DG3_1_4
delta_DG3_2_0
delta_DG3_2_1
delta_DG3_2_2
delta_DG3_2_3
delta_DG3_2_4
delta_DG3_3_0
delta_DG3_3_1
delta_DG3_3_2
delta_DG3_3_3
delta_DG3_3_4
delta_DG3_4_0
delta_DG3_4_1
delta_DG3_4_2
delta_DG3_4_3
delta_DG3_4_4
delta_DG3_5_0
delta_DG3_5_1
delta_DG3_5_2
delta_DG3_5_3
delta_DG3_5_4
delta_DG3_6_0
delta_DG3_6_1
delta_DG3_6_2
delta_DG3_6_3
delta_DG3_6_4
delta_DG3_7_0
delta_DG3_7_1
delta_DG3_7_2
delta_DG3_7_3
delta_DG3_7_4
delta_DG3_8_0
delta_DG3_8_1
delta_DG3_8_2
delta_DG3_8_3
delta_DG3_8_4
delta_DG3_9_0
delta_DG3_9_1
delta_DG3_9_2
delta_DG3_9_3
delta_DG3_9_4
u_DG1_0
u_DG1_1
u_DG1_10
u_DG1_11
u_DG1_12
u_DG1_13
u_DG1_14
u_DG1_15
u_DG1_16
u_DG1_17
u_DG1_2
u_DG1_3
u_DG1_4
u_DG1_5
u_DG1_6
u_DG1_7
u_DG1_8
u_DG1_9
u_DG2_0
u_DG2_1
u_DG2_10
u_DG2_11
u_DG2_12
u_DG2_13
u_DG2_14
u_DG2_15
u_DG2_16
u_DG2_17
u_DG2_2
u_DG2_3
u_DG2_4
u_DG2_5
u_DG2_6
u_DG2_7
u_DG2_8
u_DG2_9
u_DG3_0
u_DG3_1
u_DG3_10
u_DG3_11
u_DG3_12
u_DG3_13
u_DG3_14
u_DG3_15
u_DG3_16
u_DG3_17
u_DG3_2
u_DG3_3
u_DG3_4
u_DG3_5
u_DG3_6
u_DG3_7
u_DG3_8
u_DG3_9
u_ess_0
u_ess_1
u_ess_10
u_ess_11
u_ess_12
u_ess_13
u_ess_14
u_ess_15
u_ess_16
u_ess_17
u_ess_2
u_ess_3
u_ess_4
u_ess_5
u_ess_6
u_ess_7
u_ess_8
u_ess_9
y_DG1_0
y_DG1_1
y_DG1_10
y_DG1_11
y_DG1_12
y_DG1_13
y_DG1_14
y_DG1_15
y_DG1_16
y_DG1_17
y_DG1_2
y_DG1_3
y_DG1_4
y_DG1_5
y_DG1_6
y_DG1_7
y_DG1_8
y_DG1_9
y_DG2_0
y_DG2_1
y_DG2_10
y_DG2_11
y_DG2_12
y_DG2_13
y_DG2_14
y_DG2_15
y_DG2_16
y_DG2_17
y_DG2_2
y_DG2_3
y_DG2_4
y_DG2_5
y_DG2_6
y_DG2_7
y_DG2_8
y_DG2_9
y_DG3_0
y_DG3_1
y_DG3_10
y_DG3_11
y_DG3_12
y_DG3_13
y_DG3_14
y_DG3_15
y_DG3_16
y_DG3_17
y_DG3_2
y_DG3_3
y_DG3_4
y_DG3_5
y_DG3_6
y_DG3_7
y_DG3_8
y_DG3_9
z_DG1_0
z_DG1_1
z_DG1_10
z_DG1_11
z_DG1_12
z_DG1_13
z_DG1_14
z_DG1_15
z_DG1_16
z_DG1_17
z_DG1_2
z_DG1_3
z_DG1_4
z_DG1_5
z_DG1_6
z_DG1_7
z_DG1_8
z_DG1_9
z_DG2_0
z_DG2_1
z_DG2_10
z_DG2_11
z_DG2_12
z_DG2_13
z_DG2_14
z_DG2_15
z_DG2_16
z_DG2_17
z_DG2_2
z_DG2_3
z_DG2_4
z_DG2_5
z_DG2_6
z_DG2_7
z_DG2_8
z_DG2_9
z_DG3_0
z_DG3_1
z_DG3_10
z_DG3_11
z_DG3_12
z_DG3_13
z_DG3_14
z_DG3_15
z_DG3_16
z_DG3_17
z_DG3_2
z_DG3_3
z_DG3_4
z_DG3_5
z_DG3_6
z_DG3_7
z_DG3_8
z_DG3_9
End
